! PBEh-3c OptTS Freq pal8

%geom
 calc_hess true
 recalc_hess 20
 maxiter 600
end 

*xyzfile -1 1 IEIP_ts_guess.xyz
