! PBEh-3c NEB-CI pal8

%neb
  product "reaction-6-prod-orca.xyz"
  nimages 20
  maxiter 1000
end

*xyzfile -1 1 reaction-6-rct-orca.xyz
