! EnGrad PBEh-3c
%output 
xyzfile=True 
end 
%scf 
maxiter 250 
end
%output
Print[P_Hirshfeld] = 1
end
% maxcore
4000
*xyz 0 1
Pd   0.40634978   0.31363268  -0.20112619 
O    1.86704733   1.30239856   0.57428047 
C    1.66093809   2.60477283   0.33965236 
O    0.57196058   2.96848819  -0.14476560 
C    2.77529617   3.55617672   0.64330995 
H    2.34127691   4.46077493   1.05683212 
H    3.23059139   3.86169130  -0.28956819 
H    3.56641633   3.22654107   1.29298281 
N   -1.34953936  -0.79557808  -0.99568528 
C   -1.15286075  -2.03916232  -1.77852207 
H   -0.48169537  -1.84976858  -2.60810971 
H   -2.14104377  -2.40866103  -2.14365403 
H   -0.72037009  -2.82372885  -1.17220954 
C   -2.00267374   0.18487410  -1.88830231 
H   -2.10968797   1.13995212  -1.39432608 
H   -2.99914328  -0.15794033  -2.22538942 
H   -1.36625150   0.31468650  -2.76277839 
C   -1.72599076  -1.06370295   1.49308214 
C   -1.76877274  -2.17841789   2.35775269 
C   -1.39428359  -2.03133418   3.68701934 
C   -1.06428425  -0.77098408   4.18457572 
C   -1.02515530   0.35584746   3.34104082 
C   -1.19884478   0.11453177   1.99517633 
H   -0.81837904  -0.64970197   5.23781205 
H   -0.91699997   1.35343027   3.76049850 
H   -2.06748847  -3.15690440   1.97660639 
H   -1.43062027  -2.88517946   4.35553030 
H   -1.47366118   3.46116570   1.14001057 
C   -2.30429418  -1.12580734   0.12786391 
H   -3.10034395  -0.37559221   0.11939761 
H   -2.76165776  -2.10671311  -0.06964146 
O    1.65649414   0.34185095  -1.85045536 
C    2.26175517  -0.65346881  -2.44337648 
O    1.89758344  -1.81552250  -2.42812089 
C    3.53910434  -0.24419210  -3.18511805 
H    3.95114050  -1.13979165  -3.64583405 
H    4.27444466   0.18301847  -2.51314707 
H    3.37977189   0.50353495  -3.95414816 
*
