! EnGrad PBEh-3c
%output 
xyzfile=True 
end 
%scf 
maxiter 250 
end
%output
Print[P_Hirshfeld] = 1
end
% maxcore
4000
*xyz 0 1
C   -1.89163441   0.14826708  -0.09466898 
C   -1.60609738  -0.61382344  -1.24853403 
C   -0.83889819  -1.76932994  -1.15751332 
C   -0.33202798  -2.11073302   0.08984366 
C   -1.41499784  -0.22542010   1.12056492 
C   -0.62340614  -1.32259189   1.22422494 
H   -2.51120922   1.02542963  -0.27034339 
H   -2.00451305  -0.33464112  -2.23540681 
H   -0.65528867  -2.38906696  -2.03063707 
H   -0.15979687  -1.65888673   2.14951737 
H    0.27583385  -3.02467218   0.16685950 
Pd   1.42984129   1.26340883   0.05843413 
O    2.29277700   0.65865760  -1.71679914 
O    2.59994011  -0.41337451   0.11976217 
O    0.31455578   2.93567849  -0.08375824 
C    0.17119187   2.97081908   1.15681831 
O    0.73297355   2.06269149   1.84109528 
H   -1.68432468   0.34106784   2.02685677 
C    2.83853216  -0.29173177  -1.10900805 
H    3.49141651  -1.01371133  -1.63583248 
H   -0.43008472   3.75927051   1.63100596 
*
