! PBEh-3c OPT pal4

%geom
 maxiter 600
end 

*xyzfile 1 1 reaction-5-rct-xtb.xyz
