! PBEh-3c NEB-CI pal8

%neb
  product "product.xyz"
  nimages 20
  maxiter 1000
end

*xyzfile 0 1 reactant.xyz
