! PBEh-3c IRC pal4

%irc
  maxiter 200
  inithess read
  hess_filename "reaction-6-pbeh3c-orca_optts.hess"
end

*xyzfile -1 1 reaction-6-pbeh3c-orca_optts.xyz
