! EnGrad PBEh-3c
%output 
xyzfile=True 
end 
%scf 
maxiter 250 
end
%output
Print[P_Hirshfeld] = 1
end
% maxcore
4000
*xyz -1 1
C   -2.36066570  -0.18620197   0.86473368 
C   -1.92360296   1.05663191   1.36801852 
C   -3.71395313  -0.48565281   0.77887635 
C   -4.65464637   0.36818906   1.33944893 
C   -4.26042399   1.65212290   1.77380048 
C   -2.91937552   1.86762684   1.97129039 
H   -2.42341827  -1.37684747  -1.46195903 
H   -3.98969850  -1.51213219   0.59857120 
H   -2.57338608   2.83987403   2.35583560 
H   -5.69188800   0.22887779   1.06685702 
H   -4.97518473   2.33415496   2.19347083 
C   -0.50078229   1.53060916   1.52189206 
C    0.69956097   0.44214740   1.80590668 
H   -0.41344652   2.29603398   2.30876836 
H   -0.31075713   1.98007089   0.56283009 
C    1.81428273   0.54613175   0.82831139 
H    0.26285143  -0.55422622   1.80360060 
H    1.06764665   0.66630618   2.80434952 
C    1.73112758  -0.06673426  -0.44031583 
C    2.73770809   0.16645587  -1.37598475 
C    3.71535235   1.12927443  -1.12784823 
C    2.82102110   1.48908929   1.07047762 
C    3.80931654   1.73716957   0.12477078 
H    2.77725503  -0.41997250  -2.29590095 
H    4.47209605   1.32744283  -1.87228500 
H    3.00910394   1.76806325   2.10631128 
H    4.51991072   2.53425119   0.30184340 
Pd   0.07746784  -1.41915511  -0.91595777 
Br  -1.49641211  -3.63752254  -0.84433970 
P    1.43039193  -2.99451525   0.11585707 
H    0.88167139  -3.54544935   1.28919991 
C    0.31785217  -1.54526307  -3.95056407 
O    1.59081077  -1.61209294  -4.20177853 
O   -0.44036432  -1.86727747  -3.12323141 
O   -0.09970631  -0.10256090  -4.38082547 
H    2.73519723  -2.77481901   0.55506207 
H    1.62150907  -4.16239569  -0.63052282 
H    0.64907128   0.30583467  -4.88881323 
*
