! EnGrad PBEh-3c
%output 
xyzfile=True 
end 
%scf 
maxiter 250 
end
%output
Print[P_Hirshfeld] = 1
end
% maxcore
4000
%pal nprocs 6
end
*xyz 0 1
C   -1.89753109   1.76016644   0.26416360 
C   -3.11971873   1.15630983   0.50510451 
H   -4.16389875  -0.70167879   0.72198765 
H    3.37251092   0.70265033  -1.69742651 
C   -0.77003814   0.97080265   0.08466333 
C   -3.20704228  -0.22777017   0.55261409 
C   -0.83926168  -0.42846959   0.17185461 
C    0.52608352   1.46289593  -0.24816083 
C   -2.07524696  -1.01581291   0.39240425 
H   -1.81099152   2.83730576   0.20083368 
H   -4.00348549   1.76375502   0.64453600 
N    0.36123531  -1.15813406   0.01462556 
H   -2.15905542  -2.09425374   0.44299535 
C    1.68763165   1.12594825  -0.51479539 
C    3.02553411   0.59071200  -0.67361368 
H    3.70425521   1.11589121  -0.00646875 
H    3.06036464  -0.47173716  -0.42263574 
C    0.28817067  -2.29045132  -0.87274196 
H   -0.21974185  -3.15773002  -0.43374710 
C    1.02832478  -1.44860072   1.26745327 
H   -0.23037091  -2.00668644  -1.78711655 
H    1.29662138  -2.60534006  -1.15065243 
Au   1.18199484   3.32305945  -0.88002796 
H    0.47032251  -2.16469780   1.88422898 
H    2.01451451  -1.87783306   1.07456951 
H    1.17450917  -0.53816400   1.84914088 
Cl   1.32917916   5.49753611  -1.51578117 
*
