! PBEh-3c NEB-CI

%pal nprocs 20 end

%neb
  product "reaction-4-prod-orca.xyz"
  nimages 20
  maxiter 1000
end

*xyzfile 1 1 reaction-4-rct-orca.xyz
