! EnGrad PBEh-3c
%output 
xyzfile=True 
end 
%scf 
maxiter 250 
end
%output
Print[P_Hirshfeld] = 1
end
% maxcore
4000
*xyz 0 1
Pd   0.50152718   0.29409437  -0.25081827 
O    1.99754306   1.31212383   0.67040443 
C    1.68402758   2.60219946   0.32708364 
O    0.65503527   2.87746576  -0.22605218 
C    2.74736796   3.68886853   0.61847031 
H    2.25646401   4.57118322   1.05115929 
H    3.17435172   4.02795361  -0.33400490 
H    3.56233957   3.38377203   1.26748942 
N   -1.39118078  -0.74982034  -1.05663741 
C   -1.19423377  -1.82108205  -2.02802593 
H   -0.74029970  -1.43985072  -2.92748917 
H   -2.17385345  -2.19999211  -2.30737702 
H   -0.55374874  -2.58154069  -1.59555950 
C   -2.11695673   0.36548171  -1.67624242 
H   -2.23876915   1.19875868  -0.99701152 
H   -3.09024761  -0.00266927  -1.98657247 
H   -1.56273096   0.68148357  -2.54918679 
C   -1.64819537  -1.01785470   1.45710082 
C   -1.25707183  -2.12562956   2.28962669 
C   -1.02309420  -1.95972562   3.63357986 
C   -1.15000444  -0.71371427   4.19010744 
C   -1.54037054   0.39730687   3.42184084 
C   -1.76067218   0.18290418   2.10966065 
H   -0.91874328  -0.57380054   5.24085081 
H   -1.67150967   1.32071887   3.90389810 
H   -1.30305787  -3.13173326   1.90932035 
H   -0.90710149  -2.82984953   4.26996173 
H   -2.24016569   3.25864007   1.43090018 
C   -2.20305004  -1.30193490   0.11942623 
H   -3.21082054  -0.87367156   0.11703979 
H   -2.38532915  -2.36807671  -0.00024137 
O    2.06618018  -0.29122883  -1.40959432 
C    2.21043633  -0.50259783  -2.69641893 
O    1.39402935  -0.51832591  -3.59214040 
C    3.73946344  -0.73382616  -3.01758995 
H    3.88511830  -1.79636740  -3.27943540 
H    4.39238832  -0.48863031  -2.20507689 
H    4.01673371  -0.14304281  -3.89388425 
*
