! EnGrad PBEh-3c
%output 
xyzfile=True 
end 
%scf 
maxiter 250 
end
%output
Print[P_Hirshfeld] = 1
end
% maxcore
4000
*xyz 0 1
Pd   1.81992112   1.09985715  -0.69703362 
O   -0.27357048   2.37384150  -0.38348364 
O    0.10320604   0.26131149  -0.21690192 
O    3.63174869   1.84656118  -0.77099847 
O    3.39936499   0.92114647   1.22186563 
C   -0.71384320   1.22569003  -0.22375205 
C   -2.19711450   0.98727093  -0.12219340 
H   -2.68130151   1.83232702   0.35599176 
H   -2.49309884   0.07593084   0.39366983 
H   -2.62716306   0.92653440  -1.12329809 
C    4.09832129   1.49460622   0.38940213 
C    5.53661175   1.85201531   0.65895666 
H    5.80467262   1.69012498   1.70349864 
H    5.79476275   2.87240096   0.37138100 
H    6.16169546   1.18614170   0.06514415 
C    1.79725318   0.76103190  -2.83126591 
C    0.59615522   0.44572975  -3.48692460 
C    2.87674322  -0.20114416  -3.04254887 
C    0.33699847  -0.78950351  -4.08512671 
C    1.31915675  -1.77500746  -4.09004795 
C    2.58200532  -1.46876212  -3.58510919 
H   -0.66225430  -1.00898158  -4.45638281 
H    1.08794441  -2.78695440  -4.43757266 
H    1.44710647   2.31781281  -2.42382902 
H   -0.17044464   1.21045782  -3.43692950 
H    3.92322089  -0.04759799  -2.75807628 
H    3.30936746  -2.28362525  -3.52566040 
*
