! EnGrad PBEh-3c
%output 
xyzfile=True 
end 
%scf 
maxiter 250 
end
%output
Print[P_Hirshfeld] = 1
end
% maxcore
4000
*xyz 0 1
Pd   1.94854107   1.13364814  -0.68426704 
O   -0.42058074   2.52581121  -0.36493273 
O    0.12814891   0.37250685  -0.46119781 
O    3.79268781   1.80232973  -0.85135398 
O    3.24955984   1.00534070   1.09534470 
C   -0.72949953   1.35472938  -0.27545405 
C   -2.18816777   0.97773829  -0.10156276 
H   -2.68657734   1.81699737   0.38698731 
H   -2.41980057   0.04003912   0.40807473 
H   -2.57347788   0.90365102  -1.12244358 
C    4.12348649   1.54243415   0.37263470 
C    5.54163849   1.84795050   0.68241388 
H    5.78063171   1.73089863   1.72690995 
H    5.75252911   2.87094283   0.37249176 
H    6.17219401   1.19344841   0.06999859 
C    1.73485183   0.72650996  -2.81402813 
C    0.50713757   0.39971628  -3.40563433 
C    2.79198191  -0.21606681  -2.94085984 
C    0.32720950  -0.76716952  -4.10665353 
C    1.32335671  -1.72385850  -4.09593231 
C    2.56437627  -1.43470467  -3.57918277 
H   -0.62746469  -0.98090105  -4.52459741 
H    1.09364226  -2.72919256  -4.40411411 
H    1.75092294   1.65760589  -2.31866035 
H   -0.25080728   1.15467604  -3.38559078 
H    3.78264215   0.00557389  -2.59031578 
H    3.34016353  -2.17359871  -3.61063565 
*
