! EnGrad PBEh-3c
%output 
xyzfile=True 
end 
%scf 
maxiter 250 
end
%output
Print[P_Hirshfeld] = 1
end
% maxcore
4000
*xyz 0 1
Pd   2.10890199   0.92278042  -0.77740463 
O   -0.52857175   2.58511203  -0.78990397 
O    0.11849659   0.50975177  -0.32922363 
O    4.02202305   1.50433255  -0.94835452 
O    3.21950545   1.53790636   1.08218450 
C   -0.75509622   1.35594882  -0.38871314 
C   -2.17909235   1.08961796  -0.07873806 
H   -2.60946258   1.90987531   0.48473612 
H   -2.31569272   0.15427643   0.44694382 
H   -2.69201135   1.04586949  -1.03576445 
C    4.18100506   1.68806960   0.30391200 
C    5.56000657   2.07833982   0.73680323 
H    5.68341892   2.12811787   1.81390392 
H    5.80680671   3.04774795   0.30119034 
H    6.26041278   1.35795150   0.31530119 
C    1.87880041   0.13497026  -2.54217954 
C    0.73776848   0.23200950  -3.32619435 
C    2.82227046  -0.84917787  -2.83454355 
C    0.47063487  -0.73382560  -4.28415977 
C    1.33074534  -1.80653334  -4.46060992 
C    2.52799070  -1.83740583  -3.76186985 
H   -0.43063694  -0.66544045  -4.87338129 
H    1.08312504  -2.60011043  -5.15304857 
H    0.41840429   2.67124085  -1.02333150 
H    0.04304752   1.05118915  -3.20460664 
H    3.77962506  -0.85629194  -2.32845098 
H    3.23124410  -2.64264139  -3.91538426 
*
