! EnGrad PBEh-3c
%output 
xyzfile=True 
end 
%scf 
maxiter 250 
end
%output
Print[P_Hirshfeld] = 1
end
% maxcore
4000
*xyz 0 1
Pd   2.09761223   0.75019751  -0.67604589 
O   -0.34757676   2.68529559  -0.58073752 
O    0.06695717   0.45372077  -0.24244940 
O    3.97792534   1.33354187  -0.90181267 
O    3.14805608   1.74250218   1.05964345 
C   -0.72953836   1.36225911  -0.26340603 
C   -2.21005249   1.10430372  -0.02024146 
H   -2.65074028   1.89200550   0.58474683 
H   -2.34091243   0.14162758   0.46314498 
H   -2.73436602   1.09199436  -0.97558442 
C    4.13278307   1.74624589   0.27463609 
C    5.50025572   2.21351768   0.69250051 
H    5.54267714   2.45536689   1.73555438 
H    5.74634517   3.11241166   0.10517519 
H    6.25972634   1.47315546   0.44107658 
C    1.90587056  -0.03506266  -2.44081832 
C    0.83587357   0.18571029  -3.34288901 
C    2.75860432  -1.12468144  -2.75119085 
C    0.58489415  -0.66729730  -4.40709261 
C    1.42603337  -1.74927098  -4.64636000 
C    2.51578310  -1.96980937  -3.82148212 
H   -0.25963545  -0.48920903  -5.04417678 
H    1.23719975  -2.41150215  -5.47566919 
H    0.41516325   2.85659128  -1.02996909 
H    0.15926339   1.02361070  -3.18518176 
H    3.58813207  -1.36093093  -2.09343659 
H    3.17514519  -2.80368332  -4.00232871 
*
