! EnGrad PBEh-3c
%output 
xyzfile=True 
end 
%scf 
maxiter 250 
end
%output
Print[P_Hirshfeld] = 1
end
% maxcore
4000
*xyz 0 1
Pd   2.10310788   0.79063178  -0.74286070 
O   -0.45039392   2.61833573  -0.55880397 
O    0.07117232   0.44911662  -0.25248859 
O    3.97371954   1.34218930  -0.91582493 
O    3.17762071   1.70984703   1.09375186 
C   -0.68357086   1.41055375  -0.29020966 
C   -2.17364913   1.12925552  -0.02926636 
H   -2.65700913   1.89547653   0.57332714 
H   -2.33922757   0.14824280   0.45511045 
H   -2.72380446   1.08778284  -0.98557441 
C    4.12420226   1.75952920   0.29293558 
C    5.50126963   2.20656433   0.68512374 
H    5.56515004   2.41737480   1.75689677 
H    5.75155095   3.09991258   0.13095739 
H    6.25270890   1.45497320   0.42280292 
C    1.88542342  -0.04793971  -2.44988160 
C    0.83955929   0.19646794  -3.32272747 
C    2.76221473  -1.07897197  -2.74954216 
C    0.58735557  -0.66856852  -4.39198515 
C    1.41052930  -1.75685089  -4.62945559 
C    2.51727345  -1.94323539  -3.81499067 
H   -0.29122377  -0.51430596  -5.02379712 
H    1.21234311  -2.43925365  -5.44387095 
H    0.43263430   2.80767673  -1.04530347 
H    0.15248246   1.02664858  -3.19349012 
H    3.61840395  -1.29853156  -2.12386603 
H    3.18028258  -2.79194942  -3.98968704 
*
