! EnGrad PBEh-3c
%output 
xyzfile=True 
end 
%scf 
maxiter 250 
end
%output
Print[P_Hirshfeld] = 1
end
% maxcore
4000
*xyz 0 1
Pd   0.62247133   0.51736770  -0.49613118 
O    2.13956403   1.50342308   0.36694611 
C    1.64519497   2.65981666   0.28755368 
O    0.45819360   2.76716132  -0.06955169 
C    2.50500522   3.85746123   0.56667539 
H    1.93275003   4.65907033   1.03692881 
H    2.88412211   4.26124546  -0.38338156 
H    3.37570783   3.63053447   1.18583063 
N   -1.24959783  -0.41158241  -1.16140868 
C   -1.27239182  -1.15433075  -2.44971609 
H   -0.92162152  -0.50647318  -3.25506202 
H   -2.29756389  -1.48215954  -2.68752916 
H   -0.62548519  -2.03632573  -2.41343221 
C   -2.17610112   0.72097873  -1.35319230 
H   -2.22404455   1.34638746  -0.45894569 
H   -3.19105211   0.36777204  -1.58562372 
H   -1.81916342   1.32568916  -2.18880514 
C   -1.44009964  -0.91576073   1.32415148 
C   -0.54957154  -1.75053744   2.02458727 
C   -0.38227309  -1.65707246   3.39772768 
C   -1.24939065  -0.87093478   4.12904988 
C   -2.22459962  -0.13213850   3.47400942 
C   -2.17364141   0.03056374   2.09798109 
H   -1.16628804  -0.77689670   5.19267832 
H   -3.08165624   0.24867146   4.02280066 
H    0.02329262  -2.51595991   1.50528416 
H    0.34617197  -2.27058227   3.92266836 
H   -2.79214891   2.00850181   2.03810578 
C   -1.76251256  -1.30283282  -0.11163503 
H   -2.85647878  -1.40932645  -0.17908325 
H   -1.38429105  -2.31757897  -0.28675013 
O    1.81756579  -0.93420896  -1.12941525 
C    2.27418426  -0.73415032  -2.32674270 
O    1.78178882   0.03093985  -3.12983977 
C    3.51178047  -1.53354271  -2.66699650 
H    3.36057102  -2.60895251  -2.53078264 
H    4.35175503  -1.25279334  -2.01451088 
H    3.82090676  -1.36142135  -3.69273406 
*
