! EnGrad PBEh-3c
%output 
xyzfile=True 
end 
%scf 
maxiter 250 
end
%output
Print[P_Hirshfeld] = 1
end
% maxcore
4000
*xyz 0 1
Pd   2.08195698   0.81052808  -0.66706740 
O   -0.35584938   2.63313179  -0.51984325 
O    0.05285937   0.37592976  -0.23802272 
O    3.89336664   1.54019606  -0.89855046 
O    3.20280040   1.57869901   1.15964437 
C   -0.71701609   1.32288350  -0.26304322 
C   -2.22240082   1.07865389  -0.05705372 
H   -2.67194515   1.88721666   0.51514966 
H   -2.38530787   0.12880593   0.44039423 
H   -2.71551856   1.05715521  -1.03112106 
C    4.12644233   1.73916743   0.32718839 
C    5.53550980   2.11634619   0.71038766 
H    5.64373615   2.24236219   1.76741980 
H    5.77777303   3.06876819   0.20652216 
H    6.25729005   1.39070562   0.33439807 
C    1.96085803   0.14749483  -2.56270955 
C    0.81315391   0.24046678  -3.38026513 
C    2.83723195  -0.92872296  -2.84646410 
C    0.50405360  -0.72622648  -4.32488236 
C    1.36232262  -1.80145280  -4.52821410 
C    2.52285496  -1.90294426  -3.78248454 
H   -0.39548313  -0.63485732  -4.90319091 
H    1.13998098  -2.53958218  -5.28205075 
H    0.51250224   2.94273452  -1.28782908 
H    0.11290842   1.06337006  -3.24491739 
H    3.73317114  -1.08054618  -2.26013603 
H    3.19407650  -2.73686160  -3.92835295 
*
