! EnGrad PBEh-3c
%output 
xyzfile=True 
end 
%scf 
maxiter 250 
end
%output
Print[P_Hirshfeld] = 1
end
% maxcore
4000
*xyz 0 1
Pd   2.02507837   0.88758622  -0.60089175 
O   -0.37926992   2.43952504  -0.38611226 
O    0.07006907   0.22473048  -0.21724109 
O    3.75691921   1.76702517  -0.82551889 
O    3.27355884   1.23648632   1.22827384 
C   -0.72813365   1.34521269  -0.25174357 
C   -2.23919140   1.02034443  -0.10713909 
H   -2.67883269   1.88235538   0.42226276 
H   -2.44454961   0.11263176   0.41390947 
H   -2.68705279   1.00017772  -1.09834255 
C    4.12784205   1.67100994   0.38121383 
C    5.56409342   1.94941152   0.72815648 
H    5.74897259   1.91982862   1.75396713 
H    5.80756025   2.97326786   0.32924897 
H    6.22835759   1.27488607   0.17957153 
C    2.01310544   0.45318383  -2.85536619 
C    0.74445272   0.34775609  -3.43488635 
C    2.93930028  -0.60269178  -3.00620343 
C    0.41105370  -0.80109494  -4.15480220 
C    1.29600630  -1.85937749  -4.26708829 
C    2.53003383  -1.78520739  -3.64116238 
H   -0.53945610  -0.82372679  -4.64545955 
H    1.06189286  -2.69188415  -4.90999405 
H    0.69650734   3.11470278  -1.84115581 
H    0.03744905   1.11787187  -3.35867289 
H    3.94516192  -0.55311892  -2.67191513 
H    3.22105797  -2.60632372  -3.70685991 
*
