! Opt PBEh-3c
%geom Constraints
{ B 0 20 2.1285714285714286 C }
{ B 24 30 1.4857142857142858 C }
    end
end
%output 
xyzfile=True 
end 
%scf 
maxiter 250 
end
%output
Print[P_Hirshfeld] = 1
end
% maxcore
4000
*xyz 1 1
Ir   0.63149709  -0.70952942   0.40655875 
C    0.10331408  -2.81897807   0.34301190 
C    0.06965704  -2.35838069   1.70398082 
C    2.22140580  -2.09650310   0.90435001 
C    1.41221641  -2.65376008  -0.15284899 
C    1.39206990  -1.94314305   2.03822860 
N   -1.04751064   0.14686645  -0.52958273 
C   -2.30626908   0.42474454   0.17808516 
C   -3.09508879   1.58310750  -0.41318207 
H   -3.91351845   1.83245136   0.26072468 
H   -3.54842092   1.33984585  -1.37514492 
H   -2.48255573   2.47775430  -0.52731999 
C   -3.14049944  -0.84971283   0.24480063 
H   -2.00199753   0.69508559   1.19010226 
H   -4.03767021  -0.67030582   0.83547447 
H   -3.45402267  -1.16986380  -0.74962778 
H   -2.59745834  -1.66790487   0.71536896 
C   -0.89076349   0.40481642  -1.77341156 
C    0.44213887   0.19383210  -2.27192958 
H   -1.68972256   0.79533693  -2.39579732 
C    1.49931372   0.21721178  -1.35501643 
C    2.72230649  -0.11067601  -2.02275295 
S    0.91900270  -0.21752713  -3.84260776 
C    2.55792449  -0.36802937  -3.34633112 
H    1.52194092   1.20426723  -0.66847504 
H    3.68974560  -0.09997518  -1.54200446 
H    3.31502459  -0.61385057  -4.07537197 
H   -0.73419936  -3.21475226  -0.21332004 
H   -0.77530231  -2.38907281   2.37509073 
H    1.69360093  -1.51372022   2.98308034 
O    1.40797013   2.44875607   0.16113823 
O    0.55000272   0.96570773   1.58474423 
C    0.95936348   2.14158567   1.26774182 
C    0.89107860   3.15939804   2.37197828 
H    0.86382675   4.16767270   1.96796306 
H    1.78682878   3.07123913   2.98968362 
H    0.03298698   2.99227570   3.01931301 
H    3.27822123  -1.88252374   0.85802713 
H    1.75293228  -2.91455611  -1.14398185 
*
