! Opt PBEh-3c
%geom Constraints
{ B 0 20 2.3857142857142857 C }
{ B 24 30 1.4 C }
    end
end
%output 
xyzfile=True 
end 
%scf 
maxiter 250 
end
%output
Print[P_Hirshfeld] = 1
end
% maxcore
4000
*xyz 1 1
Ir   0.59347728  -0.72129811   0.46362941 
C    0.04169123  -2.80621376   0.36115028 
C    0.09306117  -2.35246946   1.72801059 
C    2.19872090  -2.13054757   0.81730169 
C    1.31897920  -2.64663704  -0.20702237 
C    1.45186572  -1.98497842   2.00090638 
N   -1.04471808   0.15589754  -0.51883393 
C   -2.31833879   0.46492862   0.15072355 
C   -3.11950127   1.55702608  -0.54023390 
H   -3.94870449   1.84634247   0.10397624 
H   -3.55981392   1.23059823  -1.48370472 
H   -2.52177519   2.45095049  -0.72060351 
C   -3.13306506  -0.81259610   0.31418612 
H   -2.03095602   0.82325104   1.14051968 
H   -4.04870967  -0.59453508   0.86183999 
H   -3.41497299  -1.22935481  -0.65362341 
H   -2.59337901  -1.57341250   0.87616786 
C   -0.85453485   0.37425975  -1.76362281 
C    0.49081577   0.17100406  -2.24624366 
H   -1.64542648   0.73098364  -2.41706880 
C    1.58654449   0.43044226  -1.42985173 
C    2.79309958   0.04939979  -2.08424563 
S    0.92552296  -0.48008199  -3.75990703 
C    2.58794398  -0.44924114  -3.33304179 
H    1.53122556   1.33744893  -0.63859753 
H    3.77715909   0.19297471  -1.66219582 
H    3.32800742  -0.78070550  -4.04570821 
H   -0.83590009  -3.17276416  -0.15178243 
H   -0.71154773  -2.38363071   2.44769302 
H    1.81808060  -1.58519422   2.93564744 
O    1.36501366   2.43531191   0.23734458 
O    0.53387053   0.93017057   1.65671036 
C    0.93640502   2.11356675   1.34662405 
C    0.88462940   3.11293649   2.46711089 
H    0.85208294   4.12696833   2.07813907 
H    1.78921681   3.01606320   3.07074786 
H    0.03643345   2.93704176   3.12519138 
H    3.24813935  -1.90635130   0.69769845 
H    1.59872746  -2.87836469  -1.22429156 
*
