! Opt PBEh-3c
%geom Constraints
{ B 0 20 2.257142857142857 C }
{ B 24 30 1.4285714285714286 C }
    end
end
%output 
xyzfile=True 
end 
%scf 
maxiter 250 
end
%output
Print[P_Hirshfeld] = 1
end
% maxcore
4000
*xyz 1 1
Ir   0.61682455  -0.71563808   0.44114129 
C    0.09241408  -2.81601654   0.34179457 
C    0.05524948  -2.35549258   1.70525146 
C    2.21074386  -2.10307917   0.91824500 
C    1.40175922  -2.64707519  -0.14750200 
C    1.38341833  -1.95657785   2.05126742 
N   -1.04445205   0.14519058  -0.51838527 
C   -2.31141940   0.42649546   0.17514582 
C   -3.09554742   1.57872351  -0.43407003 
H   -3.91913885   1.83554409   0.23072471 
H   -3.54158375   1.32587252  -1.39695534 
H   -2.48177399   2.47185896  -0.55305143 
C   -3.14477339  -0.84809418   0.24471528 
H   -2.01828152   0.70696606   1.18773528 
H   -4.04907614  -0.66482554   0.82321572 
H   -3.44643447  -1.17819338  -0.75016506 
H   -2.60666551  -1.66146373   0.72924218 
C   -0.87985269   0.38742087  -1.76360242 
C    0.45498466   0.18780087  -2.26713191 
H   -1.68204289   0.75878674  -2.39424580 
C    1.53955712   0.30781565  -1.40035459 
C    2.74763094  -0.04187543  -2.07347839 
S    0.89721656  -0.31668372  -3.82746596 
C    2.55088623  -0.39405347  -3.37230151 
H    1.53250506   1.25340006  -0.64446300 
H    3.72743314   0.02057213  -1.62281408 
H    3.29336615  -0.67323190  -4.10446026 
H   -0.74496177  -3.20533179  -0.21923630 
H   -0.79077486  -2.39135987   2.37518049 
H    1.68389759  -1.53746930   3.00108007 
O    1.41726544   2.42591827   0.18845812 
O    0.54476752   0.95603343   1.61715166 
C    0.96420797   2.12779854   1.29634531 
C    0.90335726   3.15047528   2.39526151 
H    0.86766176   4.15630742   1.98569276 
H    1.80694446   3.07042168   3.00270748 
H    0.05353738   2.98347581   3.05330429 
H    3.26587790  -1.88081537   0.86921010 
H    1.74464207  -2.89041094  -1.14244713 
*
