! Opt PBEh-3c
%geom Constraints
{ B 0 20 2.4714285714285715 C }
{ B 24 30 1.3 C }
    end
end
%output 
xyzfile=True 
end 
%scf 
maxiter 250 
end
%output
Print[P_Hirshfeld] = 1
end
% maxcore
4000
*xyz 1 1
Ir   0.58043908  -0.74642303   0.52605531 
C    0.04704475  -2.83044882   0.38917736 
C   -0.00105605  -2.37224721   1.75526956 
C    2.16631010  -2.14576750   0.99987611 
C    1.36230311  -2.66554755  -0.08280111 
C    1.33319255  -2.00075211   2.12472667 
N   -1.03211970   0.12383094  -0.49502563 
C   -2.31885680   0.40125279   0.16790591 
C   -3.09083069   1.55267873  -0.45908657 
H   -3.92663854   1.81181398   0.18946727 
H   -3.51927767   1.29860786  -1.42953019 
H   -2.47461022   2.44517006  -0.56957601 
C   -3.15444950  -0.87244558   0.21773126 
H   -2.05426974   0.68491138   1.18770307 
H   -4.07598766  -0.68783140   0.76807682 
H   -3.42640915  -1.20570934  -0.78471215 
H   -2.63265643  -1.68528217   0.72062462 
C   -0.85044742   0.35897005  -1.74063396 
C    0.48126176   0.19854304  -2.26314220 
H   -1.66168660   0.70392078  -2.37592079 
C    1.59981253   0.39858165  -1.46680058 
C    2.78375496   0.07990002  -2.18585275 
S    0.87074235  -0.30055620  -3.85116947 
C    2.54096791  -0.29969344  -3.47223854 
H    1.57844552   1.32162326  -0.59131094 
H    3.78131324   0.18412958  -1.78439787 
H    3.26168814  -0.56012407  -4.23268906 
H   -0.78797265  -3.20545375  -0.18485170 
H   -0.85462959  -2.40674804   2.41612680 
H    1.62847229  -1.59711469   3.08281512 
O    1.49084707   2.35873837   0.21122610 
O    0.54537855   0.95206515   1.66032320 
C    1.00382766   2.09855004   1.32091648 
C    0.95890051   3.15726613   2.38292201 
H    0.89259919   4.14709199   1.93902133 
H    1.88499261   3.11665596   2.95978781 
H    0.13419727   2.99883651   3.07348746 
H    3.22151259  -1.92179341   0.95679746 
H    1.71326468  -2.89000995  -1.07955810 
*
