! Opt PBEh-3c
%geom Constraints
{ B 0 20 2.6 C }
{ B 24 30 1.4142857142857144 C }
    end
end
%output 
xyzfile=True 
end 
%scf 
maxiter 250 
end
%output
Print[P_Hirshfeld] = 1
end
% maxcore
4000
*xyz 1 1
Ir   0.57145766  -0.73453405   0.48576950 
C    0.01767074  -2.81229211   0.34574374 
C    0.10664837  -2.37380601   1.71875777 
C    2.18634058  -2.14843337   0.76151204 
C    1.27907061  -2.64327736  -0.25011714 
C    1.47736663  -2.02407898   1.96783151 
N   -1.04062157   0.17287489  -0.50983257 
C   -2.31547311   0.51323831   0.14175562 
C   -3.13259508   1.54372158  -0.62023006 
H   -3.96790900   1.85988544   0.00297127 
H   -3.56445062   1.14772796  -1.54081406 
H   -2.55133634   2.43523481  -0.85793747 
C   -3.11452388  -0.75842573   0.39842245 
H   -2.02772167   0.94327613   1.10273695 
H   -4.03187828  -0.51142418   0.93055645 
H   -3.39366073  -1.24679145  -0.53621641 
H   -2.56745613  -1.47075141   1.01451250 
C   -0.82341538   0.37493715  -1.75112148 
C    0.53031017   0.14982312  -2.21544231 
H   -1.59757454   0.73374047  -2.42367379 
C    1.64241176   0.56571266  -1.49473948 
C    2.83916985   0.14483754  -2.14198436 
S    0.93944335  -0.67682789  -3.65686017 
C    2.61282884  -0.52492261  -3.30350511 
H    1.54968356   1.41977343  -0.68696431 
H    3.83013643   0.37921187  -1.78120305 
H    3.34250124  -0.92294190  -3.99245270 
H   -0.87521226  -3.16739099  -0.14842423 
H   -0.67953154  -2.41334128   2.45866014 
H    1.86995713  -1.64431681   2.90013925 
O    1.29098027   2.44434958   0.27435387 
O    0.54026713   0.89350596   1.69280387 
C    0.90155354   2.09732448   1.38533606 
C    0.84365106   3.07211982   2.52790588 
H    0.79381056   4.09279873   2.15857958 
H    1.75290244   2.97673512   3.12467295 
H    0.00254232   2.87268697   3.18866795 
H    3.22936230  -1.91198835   0.61071077 
H    1.53266360  -2.84878153  -1.28014130 
*
