! Opt PBEh-3c
%geom Constraints
{ B 0 20 2.0 C }
{ B 24 30 1.3142857142857143 C }
    end
end
%output 
xyzfile=True 
end 
%scf 
maxiter 250 
end
%output
Print[P_Hirshfeld] = 1
end
% maxcore
4000
%pal nprocs 4
end
*xyz 1 1
Ir   0.61200679  -0.74768475   0.39953668 
C    0.17693632  -2.86332327   0.33225393 
C   -0.13141170  -2.43442910   1.67449999 
C    2.11454748  -2.04459885   1.28616169 
C    1.56281891  -2.66052532   0.11827602 
C    1.05561395  -1.94536371   2.24379761 
N   -1.08644023   0.09641857  -0.50504328 
C   -2.35818919   0.25925671   0.21445365 
C   -3.14465778   1.49430852  -0.20092662 
H   -3.97774033   1.62901601   0.48708491 
H   -3.57582712   1.40868471  -1.19927755 
H   -2.53512477   2.39723976  -0.15868104 
C   -3.18873364  -1.01026349   0.06269487 
H   -2.07892514   0.37462698   1.26295828 
H   -4.08909336  -0.94231040   0.67207993 
H   -3.49696128  -1.15532235  -0.97348812 
H   -2.64201904  -1.89712641   0.37938058 
C   -0.94154880   0.49326053  -1.71703711 
C    0.37216882   0.32805220  -2.25524737 
H   -1.75200258   0.94736224  -2.27757560 
C    1.37704501  -0.03309322  -1.35469845 
C    2.60444430  -0.22343455  -2.06529386 
S    0.90417235   0.45754305  -3.86244132 
C    2.49064405   0.01320485  -3.40320924 
H    1.64815763   1.19861583  -0.71811702 
H    3.54496045  -0.47238152  -1.59507824 
H    3.27010125  -0.03473377  -4.14850182 
H   -0.50558104  -3.32805698  -0.36404540 
H   -1.09068444  -2.49733757   2.16477781 
H    1.14217660  -1.49780847   3.22367813 
O    1.77426729   2.31119747  -0.00302227 
O    0.62636534   1.05880202   1.43757379 
C    1.19309180   2.13211058   1.09775058 
C    1.19933026   3.26376460   2.08024983 
H    1.07774059   4.21744731   1.57168371 
H    2.16710743   3.28800499   2.58431565 
H    0.42615388   3.13893045   2.83271036 
H    3.15267740  -1.80732620   1.45975083 
H    2.10178267  -2.91353753  -0.78324439 
*
