! Opt PBEh-3c
%geom Constraints
{ B 0 20 2.2142857142857144 C }
{ B 24 30 1.457142857142857 C }
    end
end
%output 
xyzfile=True 
end 
%scf 
maxiter 250 
end
%output
Print[P_Hirshfeld] = 1
end
% maxcore
4000
*xyz 1 1
Ir   0.62361185  -0.71188522   0.42804513 
C    0.10575847  -2.81700925   0.33134051 
C    0.05998871  -2.35866038   1.69484897 
C    2.21818863  -2.09424842   0.91761764 
C    1.41733423  -2.64400170  -0.15092699 
C    1.38276137  -1.95097129   2.04625328 
N   -1.04568361   0.14689009  -0.52087666 
C   -2.30857947   0.42891477   0.17900501 
C   -3.09165125   1.58612489  -0.42201065 
H   -3.91269106   1.84151849   0.24647935 
H   -3.54101522   1.33918538  -1.38487536 
H   -2.47588923   2.47825710  -0.53817599 
C   -3.14461003  -0.84417066   0.24586680 
H   -2.01021364   0.70355184   1.19159351 
H   -4.04395237  -0.66270794   0.83258818 
H   -3.45455424  -1.16657611  -0.74897634 
H   -2.60434939  -1.66205758   0.72034589 
C   -0.88580996   0.39043069  -1.76651453 
C    0.44793323   0.18414523  -2.26905286 
H   -1.68751235   0.76618376  -2.39493973 
C    1.52594518   0.27934920  -1.38797875 
C    2.73773485  -0.06823962  -2.05860541 
S    0.89847036  -0.30432707  -3.82975320 
C    2.54870609  -0.40077190  -3.36311264 
H    1.52782689   1.23404052  -0.65695469 
H    3.71437008  -0.01813767  -1.59958644 
H    3.29441569  -0.67509731  -4.09379120 
H   -0.72705930  -3.21025107  -0.23372179 
H   -0.78933150  -2.39788577   2.36029826 
H    1.67613404  -1.52936545   2.99719361 
O    1.40763084   2.43799349   0.18039362 
O    0.54672496   0.95872453   1.60631541 
C    0.95907528   2.13419604   1.28755759 
C    0.89380675   3.15260467   2.39080430 
H    0.85467234   4.15978743   1.98490112 
H    1.79720898   3.07343899   2.99859760 
H    0.04419348   2.98031593   3.04780014 
H    3.27348702  -1.87150487   0.87619205 
H    1.76629334  -2.88859379  -1.14344467 
*
