! Opt PBEh-3c
%geom Constraints
{ B 0 20 2.3857142857142857 C }
{ B 24 30 1.4714285714285715 C }
    end
end
%output 
xyzfile=True 
end 
%scf 
maxiter 250 
end
%output
Print[P_Hirshfeld] = 1
end
% maxcore
4000
*xyz 1 1
Ir   0.60181640  -0.71310481   0.43596439 
C    0.05067323  -2.79961775   0.33887682 
C    0.12604393  -2.34425677   1.70494822 
C    2.21405483  -2.12174187   0.75763219 
C    1.31741066  -2.63979863  -0.25111039 
C    1.48965344  -1.97720952   1.95468085 
N   -1.04628367   0.17229364  -0.52589704 
C   -2.31256987   0.49801569   0.14774499 
C   -3.12264992   1.56777856  -0.56645882 
H   -3.94885300   1.87042107   0.07544601 
H   -3.56751466   1.21457835  -1.49821425 
H   -2.53039158   2.45961368  -0.77366050 
C   -3.12110183  -0.77677033   0.35590404 
H   -2.01425687   0.88434420   1.12362591 
H   -4.03037016  -0.54563753   0.90868496 
H   -3.41402325  -1.22057296  -0.59649002 
H   -2.57256779  -1.52032993   0.93239147 
C   -0.85234254   0.38117615  -1.76997253 
C    0.49729956   0.15079151  -2.23760129 
H   -1.63293062   0.74516139  -2.43166763 
C    1.59505662   0.46442770  -1.44149405 
C    2.80263171   0.04673349  -2.07416732 
S    0.93110496  -0.60337218  -3.70224024 
C    2.59639244  -0.53735879  -3.28354027 
H    1.53166717   1.35501453  -0.68501016 
H    3.78632723   0.22473100  -1.66465226 
H    3.33528418  -0.91445408  -3.97432699 
H   -0.83610658  -3.16653447  -0.15772698 
H   -0.66572464  -2.37459889   2.43887459 
H    1.87202738  -1.57646947   2.88248902 
O    1.30033727   2.47876349   0.25892931 
O    0.53475562   0.91474639   1.65306159 
C    0.90026782   2.12040794   1.36231641 
C    0.83317327   3.08363937   2.51512426 
H    0.78996435   4.10854550   2.15689479 
H    1.73561490   2.97869264   3.12052535 
H   -0.01556460   2.87941881   3.16463829 
H    3.26060534  -1.89514976   0.61867617 
H    1.58045928  -2.87312740  -1.27245885 
*
