! Opt PBEh-3c
%geom Constraints
{ B 0 20 2.4714285714285715 C }
{ B 24 30 1.4285714285714286 C }
    end
end
%output 
xyzfile=True 
end 
%scf 
maxiter 250 
end
%output
Print[P_Hirshfeld] = 1
end
% maxcore
4000
*xyz 1 1
Ir   0.58518763  -0.72519980   0.46323640 
C    0.02939482  -2.80553066   0.34537432 
C    0.11371204  -2.35881587   1.71485350 
C    2.19709561  -2.13903860   0.76022139 
C    1.29316741  -2.64352820  -0.24922401 
C    1.48202072  -2.00302860   1.96267734 
N   -1.04340778   0.17101491  -0.51855504 
C   -2.31469840   0.50399924   0.14307967 
C   -3.13027695   1.55103949  -0.59797982 
H   -3.96128665   1.86097427   0.03412112 
H   -3.56855441   1.17329477  -1.52321349 
H   -2.54527288   2.44335249  -0.82312997 
C   -3.11729533  -0.76938195   0.37971651 
H   -2.02225429   0.91598702   1.11040482 
H   -4.03138844  -0.52881495   0.92037460 
H   -3.40210017  -1.23951192  -0.56250085 
H   -2.56967242  -1.49475564   0.97977304 
C   -0.83738962   0.37688630  -1.76137201 
C    0.51437171   0.15342402  -2.22812135 
H   -1.61576125   0.73627641  -2.42846317 
C    1.61866405   0.51422461  -1.46481605 
C    2.82192603   0.09919907  -2.10486404 
S    0.93816599  -0.62621315  -3.68695280 
C    2.60724432  -0.51943007  -3.29622604 
H    1.53826234   1.38782963  -0.67553122 
H    3.80903234   0.30260811  -1.71585151 
H    3.34269310  -0.90169323  -3.98791189 
H   -0.86178037  -3.16440767  -0.14922579 
H   -0.67434240  -2.39286958   2.45280431 
H    1.87141370  -1.61362351   2.89236654 
O    1.30292904   2.45552349   0.26600199 
O    0.53634868   0.90433988   1.67442928 
C    0.90423144   2.10647323   1.37384283 
C    0.84496568   3.07931099   2.51819760 
H    0.79930312   4.10102380   2.15124573 
H    1.75183311   2.97981781   3.11792352 
H    0.00092151   2.88056276   3.17540829 
H    3.24201262  -1.90886633   0.61395821 
H    1.54995430  -2.86326252  -1.27533191 
*
