! Opt PBEh-3c
%geom Constraints
{ B 0 20 2.1714285714285713 C }
{ B 24 30 1.3142857142857143 C }
    end
end
%output 
xyzfile=True 
end 
%scf 
maxiter 250 
end
%output
Print[P_Hirshfeld] = 1
end
% maxcore
4000
*xyz 1 1
Ir   0.60309583  -0.73674553   0.45522770 
C    0.12126156  -2.84377002   0.36765327 
C   -0.09746464  -2.37662413   1.71229176 
C    2.13886035  -2.08001063   1.19760447 
C    1.48736460  -2.66632851   0.05747059 
C    1.15485909  -1.93213013   2.20961074 
N   -1.06451892   0.10761826  -0.50582448 
C   -2.34652506   0.30187381   0.19069679 
C   -3.13649545   1.50605230  -0.30255409 
H   -3.97281879   1.67874653   0.37300296 
H   -3.56395846   1.35660077  -1.29492623 
H   -2.53188728   2.41317924  -0.31371986 
C   -3.17008773  -0.97803258   0.10258870 
H   -2.07962398   0.47820207   1.23377992 
H   -4.08449230  -0.87312519   0.68518586 
H   -3.45432085  -1.19180453  -0.92858803 
H   -2.63094904  -1.84028526   0.49166098 
C   -0.90833284   0.45289008  -1.73103962 
C    0.40833828   0.29998411  -2.27275039 
H   -1.72372531   0.86672394  -2.31624645 
C    1.47165370   0.10699911  -1.39862328 
C    2.67157069  -0.12630126  -2.12951386 
S    0.86213118   0.23429263  -3.91089920 
C    2.48799658  -0.07775745  -3.48004089 
H    1.65134145   1.15867797  -0.58225139 
H    3.64195589  -0.26634773  -1.67578723 
H    3.23412251  -0.19138378  -4.25182253 
H   -0.62239462  -3.27216436  -0.28837886 
H   -1.02094595  -2.41970757   2.26940686 
H    1.31818086  -1.48493016   3.18008169 
O    1.77216612   2.26652260   0.14106296 
O    0.55772047   1.02933288   1.53490628 
C    1.15119248   2.10308958   1.21366480 
C    1.11990641   3.23009569   2.20143877 
H    0.99947163   4.18280093   1.69041584 
H    2.07578171   3.26647154   2.72677037 
H    0.33078558   3.09692005   2.93578640 
H    3.19017482  -1.85702993   1.29363719 
H    1.95797933  -2.92340533  -0.88023846 
*
