! Opt PBEh-3c
%geom Constraints
{ B 0 20 2.1714285714285713 C }
{ B 24 30 1.4142857142857144 C }
    end
end
%output 
xyzfile=True 
end 
%scf 
maxiter 250 
end
%output
Print[P_Hirshfeld] = 1
end
% maxcore
4000
*xyz 1 1
Ir   0.62260981  -0.71998194   0.43534858 
C    0.12920487  -2.83053869   0.32715926 
C   -0.00408916  -2.37442559   1.68607727 
C    2.19636745  -2.08429717   1.04007077 
C    1.46915478  -2.64875259  -0.06962335 
C    1.28514476  -1.94687462   2.11356349 
N   -1.05130119   0.13031479  -0.51227320 
C   -2.31764243   0.38155809   0.19362410 
C   -3.09815979   1.56703201  -0.35537297 
H   -3.92180769   1.79032358   0.32125237 
H   -3.54330549   1.36682089  -1.33088118 
H   -2.48190807   2.46346960  -0.42703621 
C   -3.15721576  -0.89112640   0.19337357 
H   -2.02666976   0.60967123   1.21982421 
H   -4.05720480  -0.74006291   0.78786470 
H   -3.46650465  -1.15907296  -0.81772656 
H   -2.61943440  -1.73552129   0.62180434 
C   -0.89986720   0.40805627  -1.75335290 
C    0.42537362   0.21916941  -2.27455505 
H   -1.70947648   0.79775508  -2.36272696 
C    1.49672414   0.19485397  -1.38180873 
C    2.70571575  -0.10365773  -2.08047562 
S    0.87749139  -0.09905154  -3.87830610 
C    2.51958402  -0.28150933  -3.41641736 
H    1.55983976   1.18334806  -0.63553996 
H    3.68041005  -0.12745422  -1.61523082 
H    3.26590587  -0.48765426  -4.16851662 
H   -0.66034438  -3.23899119  -0.28686472 
H   -0.89166063  -2.42114231   2.29881952 
H    1.51331502  -1.51680176   3.07861096 
O    1.54758353   2.37600290   0.15074277 
O    0.55541488   0.98517764   1.57827446 
C    1.03211444   2.12678411   1.24814838 
C    0.96851463   3.19119179   2.30566076 
H    0.92392054   4.17983055   1.85638989 
H    1.87758183   3.14342324   2.90808746 
H    0.12301505   3.04376316   2.97313812 
H    3.25151070  -1.85989837   1.06830616 
H    1.87946503  -2.89254156  -1.03869276 
*
