! Opt PBEh-3c
%geom Constraints
{ B 0 20 2.3 C }
{ B 24 30 1.4285714285714286 C }
    end
end
%output 
xyzfile=True 
end 
%scf 
maxiter 250 
end
%output
Print[P_Hirshfeld] = 1
end
% maxcore
4000
*xyz 1 1
Ir   0.60706605  -0.71426561   0.44379260 
C    0.05941728  -2.80601166   0.35925941 
C    0.09006714  -2.34544186   1.72299390 
C    2.20805695  -2.11865127   0.83789483 
C    1.34471797  -2.64827370  -0.19280223 
C    1.44064085  -1.96523573   2.00905712 
N   -1.04565704   0.15429215  -0.52454259 
C   -2.31530561   0.45157208   0.15711015 
C   -3.11378330   1.56496695  -0.50251734 
H   -3.93979646   1.84116446   0.15145155 
H   -3.55817297   1.26442588  -1.45257783 
H   -2.51209634   2.46019435  -0.66167665 
C   -3.13447954  -0.82708223   0.28858916 
H   -2.02325341   0.78162258   1.15517325 
H   -4.04591639  -0.62169792   0.84808101 
H   -3.42368121  -1.21469063  -0.68910203 
H   -2.59347099  -1.60577062   0.82406127 
C   -0.86703152   0.38485280  -1.76931516 
C    0.47447843   0.18062034  -2.25733495 
H   -1.66139887   0.75040776  -2.41320017 
C    1.56027406   0.36448206  -1.40463309 
C    2.77109188  -0.00477606  -2.06070372 
S    0.92092811  -0.40021579  -3.79158265 
C    2.57666448  -0.42984862  -3.33772201 
H    1.52849104   1.29245564  -0.64130304 
H    3.75058201   0.09555360  -1.61618437 
H    3.32117012  -0.73796446  -4.05614979 
H   -0.80882581  -3.18112642  -0.16328849 
H   -0.72447215  -2.37333643   2.43131480 
H    1.79141621  -1.55436626   2.94496647 
O    1.38169645   2.44093919   0.21966946 
O    0.53434358   0.94261320   1.63531454 
C    0.94284477   2.12338596   1.32633902 
C    0.88607940   3.12615571   2.44389912 
H    0.86440983   4.13957025   2.05263816 
H    1.78329164   3.02407252   3.05752339 
H    0.02954839   2.95717006   3.09294900 
H    3.26018813  -1.89921745   0.73591785 
H    1.63924681  -2.89335483  -1.20261993 
*
