! Opt PBEh-3c
%geom Constraints
{ B 0 20 2.0428571428571427 C }
{ B 24 30 1.4 C }
    end
end
%output 
xyzfile=True 
end 
%scf 
maxiter 250 
end
%output
Print[P_Hirshfeld] = 1
end
% maxcore
4000
*xyz 1 1
Ir   0.61924049  -0.72767678   0.40722923 
C    0.15301458  -2.84698759   0.32883357 
C   -0.06880429  -2.39838076   1.67929606 
C    2.16040124  -2.06131894   1.16050220 
C    1.51866324  -2.65699180   0.02153029 
C    1.17139421  -1.93578748   2.17586235 
N   -1.07064428   0.12182261  -0.51266251 
C   -2.33867178   0.32215901   0.20392196 
C   -3.13556816   1.52416331  -0.28244513 
H   -3.96365777   1.69761935   0.40292003 
H   -3.57504539   1.37076940  -1.26901399 
H   -2.53230616   2.43205038  -0.30339081 
C   -3.16325287  -0.95872413   0.13419603 
H   -2.05218918   0.50090931   1.24140316 
H   -4.06550725  -0.85240548   0.73509034 
H   -3.46821458  -1.17403225  -0.89067724 
H   -2.61548753  -1.81965318   0.51375681 
C   -0.92230666   0.47725698  -1.73587144 
C    0.39514152   0.29600391  -2.26566430 
H   -1.72967074   0.91351525  -2.31485459 
C    1.42506335   0.05403790  -1.35054656 
C    2.64256741  -0.19565676  -2.06263311 
S    0.89180879   0.24294874  -3.88403998 
C    2.49957150  -0.12094741  -3.41359647 
H    1.61730463   1.13021383  -0.66170925 
H    3.59703457  -0.36133945  -1.58403361 
H    3.26356754  -0.23862608  -4.16700044 
H   -0.58437875  -3.28602508  -0.32718291 
H   -0.99319664  -2.45152831   2.23372264 
H    1.32855906  -1.48965168   3.14776891 
O    1.72200763   2.31887180   0.09745712 
O    0.57651063   1.02640552   1.50158272 
C    1.13206086   2.12408633   1.17583197 
C    1.08198888   3.23282560   2.18654964 
H    0.96991302   4.19545444   1.69306912 
H    2.02776995   3.25717024   2.73053173 
H    0.28094386   3.08496227   2.90537881 
H    3.21022848  -1.83471849   1.26387852 
H    1.99351661  -2.91360458  -0.91425078 
*
