! Opt PBEh-3c
%geom Constraints
{ B 0 20 2.6 C }
{ B 24 30 1.3714285714285714 C }
    end
end
%output 
xyzfile=True 
end 
%scf 
maxiter 250 
end
%output
Print[P_Hirshfeld] = 1
end
% maxcore
4000
*xyz 1 1
Ir   0.56655279  -0.73876613   0.49836926 
C    0.01104614  -2.81489015   0.35786699 
C    0.09433570  -2.37763294   1.73114631 
C    2.17889067  -2.15394147   0.78299528 
C    1.27531498  -2.64668112  -0.23291420 
C    1.46420458  -2.02874576   1.98596897 
N   -1.04067287   0.16433328  -0.50713097 
C   -2.31902947   0.49878051   0.14147738 
C   -3.13162975   1.53823558  -0.61356742 
H   -3.96790011   1.85091450   0.01014963 
H   -3.56210069   1.15214755  -1.53895374 
H   -2.54734059   2.43023180  -0.84178550 
C   -3.12131782  -0.77414736   0.38133091 
H   -2.03643556   0.91924641   1.10825159 
H   -4.04198583  -0.53110999   0.90959572 
H   -3.39461427  -1.25367144  -0.55958497 
H   -2.57913183  -1.49275727   0.99439806 
C   -0.82467908   0.36737165  -1.74933712 
C    0.52794048   0.15646897  -2.21890567 
H   -1.60372894   0.71977690  -2.41971596 
C    1.63798236   0.55543621  -1.48583813 
C    2.83512122   0.15231254  -2.14298035 
S    0.93878139  -0.62851791  -3.68349714 
C    2.61091113  -0.48526103  -3.32348947 
H    1.54501388   1.41965413  -0.65853949 
H    3.82604587   0.37657751  -1.77552028 
H    3.34203133  -0.86308992  -4.02225304 
H   -0.87995986  -3.16859508  -0.14068593 
H   -0.69519284  -2.41703443   2.46742680 
H    1.85321643  -1.65014956   2.92024049 
O    1.32075236   2.42756123   0.26560018 
O    0.53892615   0.90097659   1.69314830 
C    0.91838302   2.09441363   1.37915982 
C    0.86950711   3.08365983   2.50867442 
H    0.82486799   4.10017058   2.12738227 
H    1.78034724   2.99000491   3.10336605 
H    0.02923415   2.89652211   3.17390592 
H    3.22291185  -1.91890754   0.63706024 
H    1.53277069  -2.85170730  -1.26207511 
*
