! Opt PBEh-3c
%geom Constraints
{ B 0 20 2.0428571428571427 C }
{ B 24 30 1.4142857142857144 C }
    end
end
%output 
xyzfile=True 
end 
%scf 
maxiter 250 
end
%output
Print[P_Hirshfeld] = 1
end
% maxcore
4000
*xyz 1 1
Ir   0.62130492  -0.72522616   0.40576329 
C    0.15355324  -2.84530856   0.32594309 
C   -0.05976573  -2.39618917   1.67745221 
C    2.16661442  -2.06152402   1.14565031 
C    1.51678773  -2.65543917   0.00974518 
C    1.18474039  -1.93537388   2.16693209 
N   -1.06907129   0.12467365  -0.51326396 
C   -2.33572526   0.32999863   0.20423695 
C   -3.13314820   1.52894052  -0.28874944 
H   -3.95988776   1.70729248   0.39701430 
H   -3.57466131   1.36877204  -1.27333545 
H   -2.52983079   2.43658772  -0.31705394 
C   -3.16072459  -0.95114536   0.14411197 
H   -2.04712236   0.51510225   1.23997924 
H   -4.06176131  -0.84048738   0.74603256 
H   -3.46780446  -1.17293772  -0.87873996 
H   -2.61258426  -1.80972473   0.52840736 
C   -0.92126350   0.47461233  -1.73800407 
C    0.39645449   0.28986808  -2.26660942 
H   -1.72821326   0.90897662  -2.31897130 
C    1.42834478   0.06061761  -1.34961141 
C    2.64551717  -0.19534498  -2.06079768 
S    0.89059621   0.21567399  -3.88436134 
C    2.50029602  -0.13913965  -3.41210517 
H    1.61295009   1.12444280  -0.66256280 
H    3.60106503  -0.35176633  -1.58126376 
H    3.26303715  -0.26490299  -4.16546122 
H   -0.58873269  -3.28235302  -0.32588897 
H   -0.98067296  -2.44895718   2.23771746 
H    1.34856178  -1.49004136   3.13810977 
O    1.71165987   2.32540134   0.10475154 
O    0.57344030   1.02303749   1.50583386 
C    1.12352768   2.12570727   1.18134450 
C    1.06564338   3.22963178   2.19741723 
H    0.97078147   4.19591747   1.70772945 
H    2.00159356   3.24151666   2.75860088 
H    0.25126036   3.08502064   2.90195765 
H    3.21716798  -1.83518939   1.24207703 
H    1.98544175  -2.91155038  -0.92928793 
*
