! Opt PBEh-3c
%geom Constraints
{ B 0 20 2.2142857142857144 C }
{ B 24 30 1.3 C }
    end
end
%output 
xyzfile=True 
end 
%scf 
maxiter 250 
end
%output
Print[P_Hirshfeld] = 1
end
% maxcore
4000
*xyz 1 1
Ir   0.59729557  -0.74042855   0.46963290 
C    0.09271898  -2.84141388   0.39272720 
C   -0.08716084  -2.36385921   1.73897394 
C    2.13940463  -2.09954775   1.16803461 
C    1.45050392  -2.67728824   0.04366532 
C    1.18687247  -1.93532153   2.20354870 
N   -1.05933516   0.10664865  -0.50725721 
C   -2.34474291   0.30771575   0.18209820 
C   -3.13710830   1.50131034  -0.33283100 
H   -3.97450859   1.68356262   0.33893040 
H   -3.56346698   1.33328808  -1.32269967 
H   -2.53528266   2.40998864  -0.35923759 
C   -3.16540215  -0.97506226   0.11254785 
H   -2.08172310   0.50169477   1.22304792 
H   -4.08496361  -0.85959901   0.68496233 
H   -3.44069576  -1.20971806  -0.91651196 
H   -2.62923786  -1.82848462   0.52430514 
C   -0.89692500   0.44496798  -1.73370184 
C    0.42172317   0.29748591  -2.27363501 
H   -1.71168827   0.85214626  -2.32462324 
C    1.49446122   0.13579149  -1.40707332 
C    2.69122251  -0.09645044  -2.14049968 
S    0.86522063   0.20853891  -3.91543607 
C    2.49742377  -0.07446945  -3.49084331 
H    1.65262604   1.17245168  -0.56348876 
H    3.66622470  -0.21766856  -1.69141843 
H    3.23943502  -0.19281936  -4.26590266 
H   -0.67383984  -3.25886947  -0.24378333 
H   -0.99568069  -2.39660906   2.32096627 
H    1.38225181  -1.48889684   3.16844247 
O    1.76288376   2.26301600   0.16167304 
O    0.54737920   1.02222971   1.55185549 
C    1.14013638   2.09762401   1.23287757 
C    1.10535833   3.22216100   2.22290358 
H    0.99864616   4.17715052   1.71323126 
H    2.05471672   3.24905411   2.76058903 
H    0.30648838   3.09283759   2.94739572 
H    3.19455106  -1.88327008   1.23283286 
H    1.89358730  -2.94069755  -0.90555859 
*
