! Opt PBEh-3c
%geom Constraints
{ B 0 20 2.0428571428571427 C }
{ B 24 30 1.4714285714285715 C }
    end
end
%output 
xyzfile=True 
end 
%scf 
maxiter 250 
end
%output
Print[P_Hirshfeld] = 1
end
% maxcore
4000
*xyz 1 1
Ir   0.62668355  -0.71274740   0.39756323 
C    0.14685154  -2.83524502   0.32598474 
C   -0.01773058  -2.37908992   1.68092457 
C    2.19089691  -2.06010133   1.07258024 
C    1.49633514  -2.64953445  -0.04168217 
C    1.24943419  -1.92535621   2.12643281 
N   -1.06551287   0.13632829  -0.52105725 
C   -2.32813065   0.36141309   0.19728925 
C   -3.13169850   1.54157624  -0.32941532 
H   -3.95444550   1.74029187   0.35565996 
H   -3.57979602   1.34702980  -1.30483194 
H   -2.53164409   2.44965586  -0.39174155 
C   -3.15008226  -0.92318524   0.18321182 
H   -2.03222106   0.57856497   1.22462362 
H   -4.04871964  -0.79323807   0.78477295 
H   -3.46125935  -1.18004481  -0.83014157 
H   -2.59872135  -1.76660098   0.59537002 
C   -0.91771701   0.46199940  -1.75188883 
C    0.40289461   0.26461012  -2.27220066 
H   -1.72218521   0.88668607  -2.34335223 
C    1.44054965   0.09150758  -1.34628309 
C    2.65880118  -0.18937442  -2.04916067 
S    0.89082855   0.09852019  -3.88283150 
C    2.50816942  -0.21285682  -3.39955809 
H    1.59287574   1.11734234  -0.67055760 
H    3.61763504  -0.30470657  -1.56470216 
H    3.26824601  -0.37225749  -4.14917717 
H   -0.62254452  -3.26413392  -0.29941379 
H   -0.91838485  -2.42661892   2.27374800 
H    1.45108032  -1.48005417   3.09048003 
O    1.66123734   2.36319492   0.13599367 
O    0.55939828   1.01185172   1.52129629 
C    1.08849972   2.13486966   1.20849218 
C    1.01191660   3.20861531   2.25697717 
H    1.01268902   4.19444125   1.79920732 
H    1.89433978   3.14061883   2.89563117 
H    0.13597657   3.08995190   2.88989204 
H    3.24476945  -1.83538997   1.12890313 
H    1.93005490  -2.90934371  -0.99629849 
*
