! Opt PBEh-3c
%geom Constraints
{ B 0 20 2.342857142857143 C }
{ B 24 30 1.3 C }
    end
end
%output 
xyzfile=True 
end 
%scf 
maxiter 250 
end
%output
Print[P_Hirshfeld] = 1
end
% maxcore
4000
*xyz 1 1
Ir   0.59125749  -0.74021992   0.50198734 
C    0.08569752  -2.83619990   0.38224540 
C   -0.05720303  -2.36591051   1.73667796 
C    2.15440731  -2.11250535   1.11625976 
C    1.43041344  -2.66600090  -0.00209645 
C    1.23837530  -1.95927396   2.17929960 
N   -1.04569238   0.11402568  -0.49828893 
C   -2.33280043   0.34707746   0.17966174 
C   -3.11150708   1.53068222  -0.37684950 
H   -3.94883710   1.74448260   0.28589907 
H   -3.53773257   1.33397533  -1.36145129 
H   -2.50036627   2.43173201  -0.43241312 
C   -3.16351473  -0.93063900   0.14864005 
H   -2.07131967   0.57132194   1.21479890 
H   -4.08280657  -0.78950760   0.71558166 
H   -3.43959364  -1.19548494  -0.87289071 
H   -2.63473970  -1.77457396   0.58889115 
C   -0.87797631   0.40168843  -1.73579172 
C    0.44432272   0.25217004  -2.27484705 
H   -1.69486487   0.77545193  -2.34653683 
C    1.55120798   0.26094821  -1.43909226 
C    2.73357252  -0.01654196  -2.17787717 
S    0.84129389  -0.03783445  -3.90840557 
C    2.49875543  -0.18756651  -3.51054135 
H    1.63475160   1.22288548  -0.55977058 
H    3.72597756  -0.03047616  -1.75136657 
H    3.22127367  -0.37490918  -4.29043595 
H   -0.70220564  -3.23643733  -0.23917524 
H   -0.95004539  -2.40372931   2.34270083 
H    1.46279843  -1.53117489   3.14613167 
O    1.67701602   2.29220890   0.20318949 
O    0.53707890   0.99259800   1.60690232 
C    1.08856897   2.09475610   1.28192219 
C    1.03629083   3.19654192   2.29767505 
H    0.95383376   4.16467826   1.80953696 
H    1.96928639   3.19787388   2.86426895 
H    0.21751646   3.05841180   2.99857914 
H    3.20977033  -1.88896707   1.14702919 
H    1.84710884  -2.90636723  -0.96930803 
*
