! Opt PBEh-3c
%geom Constraints
{ B 0 20 2.1714285714285713 C }
{ B 24 30 1.4714285714285715 C }
    end
end
%output 
xyzfile=True 
end 
%scf 
maxiter 250 
end
%output
Print[P_Hirshfeld] = 1
end
% maxcore
4000
*xyz 1 1
Ir   0.62732336  -0.70910168   0.41864361 
C    0.09932332  -2.81597454   0.34412492 
C    0.06854331  -2.35340099   1.70533096 
C    2.21955738  -2.09809289   0.90405748 
C    1.40672393  -2.65039084  -0.15362141 
C    1.39483725  -1.94553603   2.03989184 
N   -1.04559010   0.14672800  -0.52672010 
C   -2.30705898   0.42720766   0.17587339 
C   -3.09463544   1.58238776  -0.42332101 
H   -3.91418356   1.83586887   0.24767687 
H   -3.54638596   1.33390289  -1.38468595 
H   -2.48161818   2.47617485  -0.54150446 
C   -3.14117924  -0.84699616   0.24662381 
H   -2.00612672   0.70308232   1.18740803 
H   -4.04171994  -0.66425070   0.83112586 
H   -3.44922913  -1.17384060  -0.74735799 
H   -2.60076687  -1.66203030   0.72566591 
C   -0.88657912   0.39723338  -1.77157204 
C    0.44644231   0.19025935  -2.27227881 
H   -1.68735962   0.77985316  -2.39674196 
C    1.51335659   0.24532848  -1.37218568 
C    2.73133010  -0.08947313  -2.04071269 
S    0.91163516  -0.25373574  -3.84028506 
C    2.55533873  -0.37928321  -3.35694051 
H    1.52479614   1.21340371  -0.65758274 
H    3.70309642  -0.06072502  -1.56967543 
H    3.30766911  -0.63672032  -4.08695128 
H   -0.74007039  -3.20922903  -0.21114105 
H   -0.77451669  -2.38565589   2.37890821 
H    1.69930341  -1.52001830   2.98555869 
O    1.41016350   2.43784031   0.17606066 
O    0.54449488   0.96086653   1.60088426 
C    0.95898145   2.13520347   1.28258308 
C    0.89053887   3.15508511   2.38451218 
H    0.86488363   4.16259842   1.97847608 
H    1.78564789   3.06733340   3.00324747 
H    0.03167720   2.99018517   3.03140436 
H    3.27555277  -1.88088086   0.85285400 
H    1.74517322  -2.90601668  -1.14689341 
*
