! Opt PBEh-3c
%geom Constraints
{ B 0 20 2.085714285714286 C }
{ B 24 30 1.4285714285714286 C }
    end
end
%output 
xyzfile=True 
end 
%scf 
maxiter 250 
end
%output
Print[P_Hirshfeld] = 1
end
% maxcore
4000
*xyz 1 1
Ir   0.61829935  -0.71590632   0.41429144 
C    0.13109365  -2.83341144   0.34243908 
C   -0.02889449  -2.37073819   1.69566592 
C    2.18082978  -2.06735534   1.08282730 
C    1.47992648  -2.65317269  -0.02996928 
C    1.24385259  -1.92424693   2.13787719 
N   -1.06585347   0.13186474  -0.51885354 
C   -2.33463641   0.35118396   0.19136216 
C   -3.13917932   1.52912690  -0.33901729 
H   -3.96603946   1.72496771   0.34190863 
H   -3.58166071   1.33377607  -1.31682620 
H   -2.54165478   2.43909886  -0.39788288 
C   -3.15263189  -0.93569554   0.17085925 
H   -2.04707255   0.56887191   1.22100158 
H   -4.05749354  -0.80824274   0.76360157 
H   -3.45328414  -1.19423550  -0.84525826 
H   -2.60307768  -1.77732012   0.58902392 
C   -0.91303458   0.45964374  -1.74843787 
C    0.40841546   0.27459146  -2.27138300 
H   -1.71940475   0.87903050  -2.34144412 
C    1.45484850   0.11214401  -1.35921766 
C    2.66776398  -0.16393942  -2.06677695 
S    0.88520935   0.11043503  -3.88845153 
C    2.50658303  -0.18967324  -3.41721090 
H    1.60637323   1.12928127  -0.63780359 
H    3.63062028  -0.27560996  -1.58961383 
H    3.26220114  -0.34658392  -4.17187289 
H   -0.64228900  -3.25814120  -0.28091185 
H   -0.92755410  -2.41461370   2.29184674 
H    1.45049188  -1.47872625   3.10079124 
O    1.69250535   2.33413486   0.15133886 
O    0.54994011   1.01415212   1.53237404 
C    1.10168656   2.12384140   1.22065932 
C    1.03522437   3.20964383   2.25606082 
H    1.02667638   4.18968311   1.78583479 
H    1.92734771   3.15370549   2.88232718 
H    0.16828648   3.09580009   2.90178713 
H    3.23532296  -1.84424675   1.13389182 
H    1.90963229  -2.91392790  -0.98609825 
*
