! EnGrad PBEh-3c
%output 
xyzfile=True 
end 
%scf 
maxiter 250 
end
%output
Print[P_Hirshfeld] = 1
end
% maxcore
4000
*xyz 0 1
Pd   1.75042050   1.09303257  -0.42958688 
O   -0.19778559   2.25782710  -0.43528669 
O    0.06079866   0.16269573  -0.13052312 
O    3.51429668   1.97702908  -0.68150420 
O    3.44705270   0.70659777   1.11650365 
C   -0.71316769   1.19182393  -0.23952461 
C   -2.21420271   0.99009238  -0.14953695 
H   -2.68700326   1.85207404   0.32412462 
H   -2.51008296   0.08845285   0.38640562 
H   -2.63817851   0.92053963  -1.15316448 
C    4.09153932   1.45111238   0.34981493 
C    5.53832068   1.77287563   0.62498432 
H    5.83689200   1.55150550   1.65815756 
H    5.78034380   2.81507569   0.37868652 
H    6.14785867   1.13916558  -0.01780257 
C    1.78536365   0.97273825  -2.98809716 
C    0.57560801   0.51427843  -3.49848835 
C    2.85538314   0.00319138  -3.09129690 
C    0.34011060  -0.78041193  -3.97185677 
C    1.33584760  -1.74725921  -3.96157713 
C    2.58454347  -1.33092234  -3.51285214 
H   -0.65203933  -1.03694984  -4.32563754 
H    1.13097138  -2.77754764  -4.28928418 
H    1.63306766   1.99134014  -2.69721626 
H   -0.23445703   1.23635200  -3.49192644 
H    3.91870517   0.12183226  -2.88234986 
H    3.32406483  -2.13054569  -3.43884498 
*
