! EnGrad PBEh-3c
%output 
xyzfile=True 
end 
%scf 
maxiter 250 
end
%output
Print[P_Hirshfeld] = 1
end
% maxcore
4000
*xyz 0 1
Lu   0.03938946   0.01874888   0.03582655 
C    0.43115244   0.78516318   2.50489066 
C    1.42191311  -0.17390492   2.19264209 
C    2.28327059   0.39242453   1.23486516 
C    1.80396861   1.67143820   0.91060466 
C    0.65172982   1.91240510   1.69194353 
H    2.29458626   2.37946744   0.25251773 
H    0.09470519   2.83972978   1.72346216 
H   -0.35139404   0.67290523   3.24180690 
H    1.57427000  -1.12307650   2.68952740 
H    3.19656198  -0.05332499   0.86401374 
C    0.88697419  -0.06925426  -2.39491095 
C   -0.37218952  -0.71217047  -2.42195252 
C    1.04716052  -1.99653072  -1.18810468 
C    1.76630730  -0.87879885  -1.64649860 
H    1.16608802   0.82513655  -2.92610967 
C   -0.27117698  -1.90505719  -1.68424904 
H   -1.24639645  -0.35848677  -2.95010933 
H    2.82319510  -0.70804036  -1.52433431 
H    1.47136725  -2.83550445  -0.64910009 
H   -1.05710836  -2.63026511  -1.53235495 
C   -2.23361909  -1.27655209   1.11507810 
H   -2.22696811  -1.20800162   2.20543367 
H   -1.76682838  -2.25251132   0.91179412 
H   -3.31282849  -1.45766259   0.87638027 
C   -1.92764394   1.70281036  -0.74001888 
H   -2.10728665   0.20293295   0.23501544 
H   -1.05095148   2.27690310  -1.11556589 
H   -2.50721243   2.48289564  -0.22482670 
H   -2.50027799   1.50121177  -1.65430150 
*
