! EnGrad PBEh-3c
%output 
xyzfile=True 
end 
%scf 
maxiter 250 
end
%output
Print[P_Hirshfeld] = 1
end
% maxcore
4000
*xyz 0 1
C   -1.56848871   0.18938474  -0.45059865 
C   -2.02989361  -0.85050502  -1.25110351 
C   -1.62399864  -2.16647649  -1.00524063 
C   -0.75084873  -2.40518391   0.06284006 
C   -0.66386116  -0.04059885   0.58678664 
C   -0.30885743  -1.35565954   0.85449205 
H   -1.90409733   1.17998220  -0.71013800 
H   -2.69102015  -0.66746157  -2.10540474 
H   -2.00335327  -2.99455683  -1.61487315 
H    0.36959952  -1.59209577   1.65055956 
H   -0.41026835  -3.42874816   0.22912356 
Pd   1.29040891   1.01554033   0.01059044 
O    3.16107870   1.27531365  -1.29975969 
O    2.56104869  -0.52490515  -0.20470792 
O    0.37784139   2.77475414   0.14533764 
C   -0.01352582   2.92276621   1.35493719 
O    0.23446680   2.11660278   2.24557218 
H   -0.95644736   1.15854534   2.37639994 
C    3.35906070   0.08083333  -1.00470235 
H    4.21904022  -0.47597421  -1.40856303 
H   -0.64708376   3.77588688   1.52584437 
*
