! PBEh-3c OPT pal4

%geom
 maxiter 600
 Scan B 3 27 = 5.0, 1.0, 25 end  # scanning O-H distance
end 

*xyzfile 0 1 reaction-1-rct-pbeh3c-orca_opt.xyz
