! PBEh-3c NEB-CI

%pal nprocs 10 end

%neb
  product "reaction-3-prod-orca.xyz"
  nimages 20
  maxiter 500
  restart_allxyzfile "reaction-3-pbeh3c-orca_neb_MEP.allxyz"
end

*xyzfile -1 1 reaction-3-rct-orca.xyz
