! PBEh-3c NEB-CI

%pal nprocs 10 end

%neb
  product "reaction-3-prod-orca.xyz"
  nimages 20
  maxiter 1000
end

*xyzfile -1 1 reaction-3-rct-orca.xyz
