%pal nprocs 8 end

*xyzfile 1 1 cineb-5-peak.xyz

%compound

new_step

! PBEh-3c OptTS Freq pal8

%geom
 calc_hess true
 recalc_hess 20
 maxiter 600
end 

step_end
alias_step optimise

read_geom optimise
read_mos optimise
new_step

! PBEh-3c IRC pal8
%irc
  maxiter 600
  inithess read
  hess_filename "reaction-4-cineb5_optts_Compound_1.hess"
end

step_end

end
