! PBEh-3c NEB-CI

%pal nprocs 10 end

%neb
  product "reaction-5-prod-orca.xyz"
  nimages 20
  maxiter 1000
end

*xyzfile 1 1 reaction-5-rct-orca.xyz
