! PBEh-3c OPT pal4

%geom
 maxiter 600
 Scan B 4 11 = 3.4, 2.2, 10 end  # scanning C-Pd distance
end 

*xyzfile 0 1 reaction-0-rct-pbeh3c-orca_opt.xyz
