! PBEh-3c IRC pal4

%irc
  maxiter 200
  inithess read
  hess_filename "reaction-5-pbeh3c-orca_optts.hess"
end

*xyzfile 1 1 reaction-5-pbeh3c-orca_optts.xyz
