! EnGrad PBEh-3c
%output 
xyzfile=True 
end 
%scf 
maxiter 250 
end
%output
Print[P_Hirshfeld] = 1
end
% maxcore
4000
*xyz 1 1
Ir   0.48068747  -0.75526329   0.75244486 
C   -0.07166988  -2.80794997   1.40772706 
C    0.49922781  -2.10289202   2.52213005 
C    2.04495238  -2.17486014   0.79804833 
C    0.87432759  -2.84793837   0.35569302 
C    1.81589389  -1.79032098   2.15049864 
N   -1.03284854  -0.04111060  -0.44603686 
C   -2.43983670  -0.01894349   0.00227621 
C   -2.87921379   1.33380449   0.54162126 
H   -3.91019044   1.33012421   0.90162280 
H   -2.79513098   2.10123668  -0.22327550 
H   -2.30757013   1.62116482   1.41602643 
C   -3.47631717  -0.50777130  -1.00225828 
H   -2.49288609  -0.70203931   0.85058775 
H   -4.44646877  -0.64003562  -0.52633804 
H   -3.62739432   0.19327700  -1.82337748 
H   -3.19173195  -1.47230816  -1.42124930 
C   -0.77637293   0.24757838  -1.66685043 
C    0.50966886   0.23183475  -2.28729260 
H   -1.58772811   0.53438207  -2.32998369 
C    1.69039456  -0.05894213  -1.66307653 
C    2.80429097  -0.06604362  -2.52824859 
S    0.75434350   0.19919266  -3.98247598 
C    2.42670638   0.00498766  -3.83929587 
H    2.24718025   1.16569866  -0.81271196 
H    3.85208755  -0.11506825  -2.26566963 
H    3.06006107  -0.08761546  -4.70855253 
H   -0.89408857  -3.50332016   1.50043948 
H    0.04822611  -2.01902330   3.49624545 
H    2.57836645  -1.40645983   2.80699138 
O    1.88747568   1.91698196   0.54864299 
O    0.25633976   1.12274038   1.68341890 
C    0.94083838   2.10394781   1.37360614 
C    0.84965714   3.43200411   2.01990529 
H    0.85735701   4.21496546   1.26268089 
H    1.70672648   3.61755076   2.66890068 
H   -0.05233290   3.51446181   2.61805938 
H    3.02765059  -2.29466392   0.36446255 
H    0.76932149  -3.47334387  -0.51533124 
*
