! EnGrad PBEh-3c
%output 
xyzfile=True 
end 
%scf 
maxiter 250 
end
%output
Print[P_Hirshfeld] = 1
end
% maxcore
4000
*xyz 0 1
Lu  -0.02687457  -0.00758335   0.05975955 
C    0.44961622   0.79784901   2.51230739 
C    1.43775862  -0.15839545   2.20808858 
C    2.30200930   0.40089810   1.24675556 
C    1.81778540   1.67845253   0.91968902 
C    0.67238156   1.92933594   1.70828624 
H    2.30855168   2.39157522   0.26300802 
H    0.10052327   2.84543015   1.72422610 
H   -0.32939777   0.69032426   3.25995276 
H    1.56106762  -1.12420274   2.68446447 
H    3.21796240  -0.04626106   0.88395617 
C    0.89952363  -0.07735194  -2.40640706 
C   -0.36039918  -0.71814108  -2.44372188 
C    1.05824125  -2.00832773  -1.20825322 
C    1.77720359  -0.88643713  -1.66476686 
H    1.17072744   0.82546387  -2.93823826 
C   -0.26124784  -1.91020138  -1.70292500 
H   -1.23582989  -0.36587566  -2.96699816 
H    2.84064412  -0.72630958  -1.54501687 
H    1.46892094  -2.84139430  -0.65437431 
H   -1.05003059  -2.62972298  -1.54815249 
C   -2.24899012  -1.42354437   1.17716835 
H   -2.24222816  -1.31175799   2.26844915 
H   -1.85930710  -2.45132957   1.01708188 
H   -3.30657614  -1.47168921   0.88699567 
C   -1.95515733   1.78783902  -0.77734753 
H   -2.06601826   0.35757317   0.18478795 
H   -1.07784593   2.36052826  -1.16786846 
H   -2.53734616   2.56521628  -0.26636722 
H   -2.51723017   1.53716447  -1.68075258 
*
