! EnGrad PBEh-3c
%output 
xyzfile=True 
end 
%scf 
maxiter 250 
end
%output
Print[P_Hirshfeld] = 1
end
% maxcore
4000
*xyz -1 1
Pt  -0.62813617  -0.70513307   0.37738791 
Cl  -0.03587643  -0.16076732   2.56978459 
Cl  -2.56122023  -1.87940700   1.09980560 
Cl  -1.13022099  -1.25193047  -1.83964968 
C    0.72062538   0.96029224  -0.47014980 
H    1.37021649   1.47645233   0.23432482 
H    1.11680025  -0.81217842   0.14062181 
H    1.26145507   0.74973825  -1.39140951 
H   -0.11364337   1.62293171  -0.72069926 
*
