! EnGrad PBEh-3c
%output 
xyzfile=True 
end 
%scf 
maxiter 250 
end
%output
Print[P_Hirshfeld] = 1
end
% maxcore
4000
*xyz 0 1
Pd   1.85984549   1.23958639  -0.83572876 
O   -0.37301950   2.48502908  -0.38186665 
O    0.11981277   0.31960252  -0.38859513 
O    3.71307573   1.85434286  -0.80930352 
O    3.33755279   0.87556132   1.13022535 
C   -0.72911958   1.25571472  -0.25097526 
C   -2.19981228   0.97944095  -0.11293056 
H   -2.68932226   1.82152157   0.35442190 
H   -2.46740080   0.06026286   0.39276741 
H   -2.58576606   0.90288792  -1.12776643 
C    4.09745045   1.47412529   0.37032728 
C    5.53118976   1.81408680   0.64581358 
H    5.80622557   1.64525577   1.68009871 
H    5.76607170   2.84258338   0.38007031 
H    6.15102499   1.16961735   0.02536134 
C    1.76171579   0.68550977  -2.78510377 
C    0.55776343   0.42457327  -3.41845494 
C    2.84207705  -0.18497551  -2.99521187 
C    0.34302665  -0.77244656  -4.08138567 
C    1.33148653  -1.74830411  -4.07162047 
C    2.59251579  -1.42390179  -3.58348774 
H   -0.64820242  -1.02695386  -4.43681313 
H    1.09569515  -2.78431674  -4.30730270 
H    1.57883203   2.09588368  -2.27129138 
H   -0.20397788   1.18647729  -3.41508422 
H    3.86402450   0.03934516  -2.69374292 
H    3.35709246  -2.20159072  -3.54200989 
*
