! EnGrad PBEh-3c
%output 
xyzfile=True 
end 
%scf 
maxiter 250 
end
%output
Print[P_Hirshfeld] = 1
end
% maxcore
4000
*xyz 0 1
Pd   1.91080435   1.30449775  -0.72510276 
O   -0.45759949   2.54918701  -0.41327075 
O    0.11426969   0.40523451  -0.53359306 
O    3.77968922   1.88380953  -0.85981509 
O    3.26373288   0.92123600   1.02070201 
C   -0.76148815   1.34679605  -0.31261318 
C   -2.19891028   0.98026553  -0.11091750 
H   -2.69596274   1.82422503   0.37480841 
H   -2.41039589   0.04123501   0.40899295 
H   -2.57565981   0.89475963  -1.13587622 
C    4.11731495   1.50904893   0.31847851 
C    5.53791454   1.79620556   0.65221135 
H    5.78352718   1.63802424   1.69370857 
H    5.73918638   2.83213920   0.37971311 
H    6.17137529   1.16517815   0.02067014 
C    1.75826475   0.67646444  -2.79496170 
C    0.52987036   0.39228187  -3.37973298 
C    2.82894365  -0.22601610  -2.95213820 
C    0.33972005  -0.78761667  -4.05878868 
C    1.33589740  -1.74061935  -4.06048792 
C    2.58767349  -1.44046010  -3.57950779 
H   -0.62034418  -0.99632627  -4.47943349 
H    1.09859531  -2.76124815  -4.32098515 
H    1.67035999   1.78225568  -2.10027242 
H   -0.23360623   1.15357820  -3.35911771 
H    3.81091572   0.04305906  -2.60445082 
H    3.37840492  -2.15894663  -3.60702734 
*
