! EnGrad PBEh-3c
%output 
xyzfile=True 
end 
%scf 
maxiter 250 
end
%output
Print[P_Hirshfeld] = 1
end
% maxcore
4000
*xyz 0 1
Pd   1.79169132   1.11787799  -0.72765932 
O   -0.26643072   2.30531644  -0.36502336 
O    0.10867826   0.22420332  -0.20759503 
O    3.60738379   1.85071684  -0.76192831 
O    3.40816347   0.86321875   1.22040823 
C   -0.72692331   1.27947395  -0.22703232 
C   -2.20347826   0.97908336  -0.13522743 
H   -2.68865430   1.83746382   0.33966691 
H   -2.51118711   0.07397688   0.39061044 
H   -2.63460124   0.91946562  -1.13588359 
C    4.09914385   1.48614084   0.38265089 
C    5.54084819   1.81292497   0.64738164 
H    5.81722016   1.63614176   1.68001850 
H    5.79764055   2.84902069   0.37347867 
H    6.15718595   1.17085823   0.01973416 
C    1.84358610   0.69356650  -2.87775621 
C    0.62109363   0.45455708  -3.49912152 
C    2.92973339  -0.21917565  -3.07382059 
C    0.35789530  -0.80699902  -4.04510404 
C    1.32888835  -1.80070674  -4.01726868 
C    2.60431601  -1.50812098  -3.55667832 
H   -0.65282059  -1.00992888  -4.39112670 
H    1.09323363  -2.78470685  -4.40532436 
H    1.23362443   2.73211223  -2.39325594 
H   -0.13992308   1.21265671  -3.45226574 
H    3.97286195  -0.03407917  -2.85584345 
H    3.32354776  -2.31436751  -3.46297538 
*
