! PBEh-3c OptTS Freq pal6

%geom
 maxiter 600
 calc_hess true
 recalc_hess 25
end 

*xyzfile 0 1 cineb-10-peak.xyz
