! PBEh-3c OptTS Freq pal8

%geom
 trust -0.1
 calc_hess true
 recalc_hess 5
 maxiter 600
end 

*xyzfile 1 1 ts_guess_0.xyz
