! EnGrad PBEh-3c
%output 
xyzfile=True 
end 
%scf 
maxiter 250 
end
%output
Print[P_Hirshfeld] = 1
end
% maxcore
4000
*xyz 0 1
C   -1.33075390   0.13615935  -0.80357666 
C   -2.22458314  -0.86984525  -1.16308771 
C   -2.01143235  -2.17398257  -0.73815656 
C   -0.96058046  -2.44372677   0.13199848 
C   -0.20163023  -0.15825774  -0.04502186 
C   -0.07836775  -1.43656177   0.49474602 
H   -1.50810202   1.13678542  -1.17434122 
H   -3.05263384  -0.64150031  -1.82656984 
H   -2.63876365  -2.98199505  -1.10721006 
H    0.73834715  -1.67438788   1.15868676 
H   -0.78712138  -3.45643314   0.47940673 
Pd   1.37716440   0.96817018  -0.17769004 
O    3.46439772   1.46140910  -0.83918637 
O    2.66388116  -0.55647804  -0.57718540 
O    0.33410585   2.72647747   0.27469017 
C   -0.24845348   2.76549233   1.34562264 
O   -0.05878355   1.85750399   2.25624598 
H   -0.79045569   1.77279319   2.87633003 
C    3.60551077   0.22868976  -0.89636584 
H    4.55771789  -0.22070294  -1.21846435 
H   -0.91192911   3.59381070   1.57704165 
*
