! EnGrad PBEh-3c
%output 
xyzfile=True 
end 
%scf 
maxiter 250 
end
%output
Print[P_Hirshfeld] = 1
end
% maxcore
4000
*xyz -1 1
Pd  -2.14213543  -1.76559514   0.69288316 
Cl  -3.54905446  -3.27371175  -0.17084162 
Cl  -0.69569410  -4.30148041   1.27654322 
Cl  -3.93303824  -0.24861405   0.74272341 
N   -0.96734531  -0.13670604   1.43572809 
C   -1.28601347   0.43515484   2.58493423 
C   -0.76399285   1.66610161   3.00471854 
C    0.08187781   2.33797200   2.16474388 
C   -0.07005522   0.45078411   0.61906076 
C    0.44412707   1.74417277   0.94556282 
H    0.48671159   3.30911705   2.43720562 
H   -1.96712588  -0.11452534   3.22167020 
H   -1.07072525   2.08192646   3.95444592 
C    0.35477313  -0.29927191  -0.55635736 
C    1.33103703   2.41987425   0.04866051 
C    1.65890438   1.82445905  -1.11408860 
C    1.17541891   0.49247554  -1.44073879 
H    1.72471567   3.40234043   0.32046254 
H    2.34033276   2.34402144  -1.80291690 
C    0.02048197  -1.70458677  -0.82232155 
C    1.64578904  -0.06037755  -2.65225683 
C    0.36896730  -2.06787542  -2.11221424 
C    1.19598640  -1.31453761  -2.98913583 
H    2.33215656   0.49106062  -3.30662171 
H    1.58253406  -1.78674606  -3.88872521 
H   -0.32897753  -2.89763315  -0.11342042 
H    0.02510597  -3.02837823  -2.47371791 
*
