! PBEh-3c NEB-CI

%pal nprocs 10 end

%neb
  product "reaction-7-prod-orca.xyz"
  nimages 20
  maxiter 1000
end

*xyzfile 0 1 reaction-7-rct-orca.xyz
