! PBEh-3c NEB-CI pal8

%neb
  product "reaction-0-prod-orca.xyz"
  nimages 20
  maxiter 1000
end

*xyzfile 0 1 reaction-0-rct-orca.xyz
