! EnGrad PBEh-3c
%output 
xyzfile=True 
end 
%scf 
maxiter 250 
end
%output
Print[P_Hirshfeld] = 1
end
% maxcore
4000
%pal nprocs 6
end
*xyz 0 1
C   -2.02138016   1.83320434   0.26045660 
C   -3.15696392   1.12844348   0.52120393 
H   -4.11232060  -0.72958273   0.72978332 
H    3.21111168   0.58495742  -1.70297928 
C   -0.76582247   1.08171660   0.06345827 
C   -3.16373983  -0.22275844   0.56938247 
C   -0.66340053  -0.45519637   0.16124946 
C    0.38354372   1.76853619  -0.26820221 
C   -1.94127299  -0.96728872   0.41128811 
H   -1.87410688   2.86794154   0.18207942 
H   -4.00690849   1.72023958   0.64845407 
N    0.24700768  -1.39984772   0.06261797 
H   -2.06890106  -2.07429265   0.45776478 
C    1.78835556   0.44218789  -0.57981709 
C    2.97216375   0.26636120  -0.65210302 
H    3.39306518   1.06915803   0.04078231 
H    3.30739628  -0.72561703  -0.44553457 
C    0.35227344  -2.12847252  -0.83222891 
H   -0.12793197  -2.95590524  -0.43284561 
C    0.98946995  -1.39454279   1.19931658 
H   -0.12164081  -1.84426197  -1.79792516 
H    1.38326536  -2.44236500  -1.15908847 
Au   0.91507760   3.60131934  -0.85712689 
H    0.44359406  -2.14198465   1.78721966 
H    2.02862513  -1.84445896   1.10090325 
H    1.19851650  -0.53926343   1.95773556 
Cl   1.43179717   5.57974444  -1.55115308 
*
