! EnGrad PBEh-3c
%output 
xyzfile=True 
end 
%scf 
maxiter 250 
end
%output
Print[P_Hirshfeld] = 1
end
% maxcore
4000
%pal nprocs 6
end
*xyz 0 1
C   -1.90039845   1.77192658   0.26204784 
C   -3.11406797   1.15536698   0.50717731 
H   -4.14959857  -0.70593201   0.71896742 
H    3.32062903   0.67973529  -1.68597736 
C   -0.76898868   0.99309734   0.07558416 
C   -3.19313217  -0.22834070   0.55393788 
C   -0.82569023  -0.40530511   0.17359681 
C    0.52311170   1.49609792  -0.27171471 
C   -2.05398510  -1.01120887   0.39505864 
H   -1.81694713   2.84780264   0.19946327 
H   -4.00000661   1.75759986   0.64674750 
N    0.40105402  -1.10307917   0.00519931 
H   -2.14178788  -2.09077329   0.44127636 
C    1.60524910   0.87759467  -0.50123302 
C    2.98727248   0.51215039  -0.66366016 
H    3.60589881   1.10502226   0.00912794 
H    3.13811488  -0.53720847  -0.42061517 
C    0.31941528  -2.23902818  -0.88218169 
H   -0.19600795  -3.08679220  -0.41862455 
C    1.04388760  -1.43184800   1.26846086 
H   -0.21340124  -1.97045196  -1.79353800 
H    1.31931856  -2.57940251  -1.16124515 
Au   1.12291638   3.35467044  -0.86125695 
H    0.46023484  -2.15467467   1.84963889 
H    2.02585540  -1.87382119   1.07893663 
H    1.18969183  -0.53799687   1.87631401 
Cl   1.34220144   5.51664765  -1.52211545 
*
