! EnGrad PBEh-3c
%output 
xyzfile=True 
end 
%scf 
maxiter 250 
end
%output
Print[P_Hirshfeld] = 1
end
% maxcore
4000
%pal nprocs 6
end
*xyz 0 1
C   -1.89780215   1.77061154   0.26208199 
C   -3.11314741   1.15594477   0.50687629 
H   -4.15039857  -0.70542446   0.71873531 
H    3.32297930   0.68176925  -1.68561250 
C   -0.76905663   0.99119555   0.07584439 
C   -3.19376294  -0.22846050   0.55360644 
C   -0.82917301  -0.40423443   0.17386179 
C    0.52610687   1.49025132  -0.27179009 
C   -2.05640393  -1.01215141   0.39471035 
H   -1.81572046   2.84737045   0.19983633 
H   -3.99985849   1.75840162   0.64671087 
N    0.40435989  -1.09671044   0.00396709 
H   -2.14335205  -2.09112696   0.44092252 
C    1.60131959   0.88693862  -0.49954659 
C    2.98759672   0.51742509  -0.66390818 
H    3.61046628   1.10579191   0.00844863 
H    3.13448206  -0.53316518  -0.42008039 
C    0.31871014  -2.24140074  -0.88325369 
H   -0.19746888  -3.08960107  -0.41831936 
C    1.04505542  -1.43264858   1.26994472 
H   -0.21537044  -1.97316003  -1.79344385 
H    1.31794624  -2.58234337  -1.16129143 
Au   1.12737666   3.34937729  -0.86134558 
H    0.46059196  -2.15494700   1.85097842 
H    2.02579596  -1.87445132   1.07846522 
H    1.18950245  -0.53796969   1.87456668 
Cl   1.34027869   5.51529358  -1.52149229 
*
