! EnGrad PBEh-3c
%output 
xyzfile=True 
end 
%scf 
maxiter 250 
end
%output
Print[P_Hirshfeld] = 1
end
% maxcore
4000
*xyz 0 1
C   -1.31929278   0.11111790  -0.91481171 
C   -2.29710949  -0.85263676  -1.12014265 
C   -2.14372675  -2.13119058  -0.61291166 
C   -1.01581732  -2.45314709   0.12394575 
C   -0.21583508  -0.23855456  -0.16080511 
C   -0.04633364  -1.49705793   0.38208727 
H   -1.46141570   1.07450091  -1.39048001 
H   -3.17025752  -0.60870596  -1.71240111 
H   -2.90336130  -2.88192116  -0.79809872 
H    0.81663877  -1.79241571   0.96672987 
H   -0.89071066  -3.45635705   0.51128995 
Pd   1.49395394   1.02254463  -0.25903707 
O    3.57875579   1.54099134  -0.66586367 
O    2.79982970  -0.49612601  -0.70330434 
O    0.26949630   2.63142152   0.18186521 
C   -0.24364549   2.71454459   1.28012765 
O    0.11076751   1.90649659   2.22938978 
H   -0.90576175   1.65089600   3.06054591 
C    3.75602277   0.32023372  -0.81675250 
H    4.74290054  -0.08295940  -1.08453438 
H   -0.95508908   3.51831500   1.50317905 
*
