! PBEh-3c OptTS Freq pal8

%geom
 calc_hess true
 recalc_hess 20
 maxiter 600
end 

*xyzfile 0 1 reaction-1-pbeh3c-orca_neb_NEB-CI_converged.xyz
