! EnGrad PBEh-3c
%output 
xyzfile=True 
end 
%scf 
maxiter 250 
end
%output
Print[P_Hirshfeld] = 1
end
% maxcore
4000
*xyz 1 1
Ir   0.43184179  -0.69542373   1.00519703 
C   -0.01673820  -2.60683979   1.93853273 
C    1.15364195  -2.06137461   2.57079847 
C    1.59723644  -2.34083594   0.31470145 
C    0.27280616  -2.82013932   0.56899629 
C    2.13631011  -1.90275958   1.56240369 
N   -0.90821834   0.05358837  -0.38722562 
C   -2.34094371   0.17729119  -0.00771307 
C   -2.82387199   1.61682132   0.05188435 
H   -3.84319642   1.66637938   0.43331248 
H   -2.80398352   2.08824720  -0.93096666 
H   -2.21394349   2.22830400   0.70901573 
C   -3.27564430  -0.65819828  -0.87239590 
H   -2.41039470  -0.20783235   1.00823710 
H   -4.27231304  -0.68092807  -0.43302662 
H   -3.38380042  -0.26059637  -1.88274505 
H   -2.93186970  -1.68867299  -0.95689782 
C   -0.61163885   0.27648220  -1.61173576 
C    0.66944977   0.20686583  -2.25135552 
H   -1.42386355   0.54379080  -2.28582402 
C    1.93896832   0.26547710  -1.75535527 
C    2.96829873   0.15836164  -2.70110844 
S    0.76662424  -0.04565576  -3.95008846 
C    2.46007758  -0.07559716  -3.94775828 
H    2.29328983   0.91640966  -0.75530471 
H    4.02900304   0.16232223  -2.49831706 
H    3.02157573  -0.24596039  -4.85342392 
H   -0.88773074  -2.98461765   2.45031696 
H    1.26416695  -1.90792853   3.63085784 
H    3.13143470  -1.50806368   1.69945452 
O    1.45953321   1.47276969   0.99516414 
O   -0.21564396   0.93763944   2.19290613 
C    0.59301027   1.83027222   1.84177276 
C    0.58375239   3.22342903   2.35101117 
H    0.76487167   3.94183174   1.55321235 
H    1.37843752   3.36493506   3.08550843 
H   -0.36448908   3.43965011   2.83557881 
H    2.15588512  -2.52072200  -0.58452282 
H   -0.34192028  -3.35871323  -0.13308963 
*
