! EnGrad PBEh-3c
%output 
xyzfile=True 
end 
%scf 
maxiter 250 
end
%output
Print[P_Hirshfeld] = 1
end
% maxcore
4000
*xyz 0 1
Pd   1.89509030   1.26961299  -0.76137774 
O   -0.48907800   2.54708064  -0.44439676 
O    0.11558337   0.45063283  -0.54841511 
O    3.77654298   1.92375220  -0.87184752 
O    3.26729590   0.91226229   0.97142664 
C   -0.77010888   1.38579421  -0.35946918 
C   -2.20180485   0.97830541  -0.12312345 
H   -2.70553552   1.81481883   0.36950915 
H   -2.38671247   0.04329240   0.41052282 
H   -2.59691368   0.88458541  -1.13486586 
C    4.12771158   1.49714542   0.27900577 
C    5.54044025   1.77123103   0.64138953 
H    5.77740265   1.59607912   1.68174092 
H    5.74053130   2.81255927   0.38139417 
H    6.17740892   1.15556409   0.00191913 
C    1.76363797   0.60554218  -2.70095775 
C    0.56045607   0.39045682  -3.36100237 
C    2.85033184  -0.24573655  -2.94471729 
C    0.34768891  -0.80506376  -4.03716371 
C    1.34207816  -1.77559711  -4.03986724 
C    2.62018600  -1.46662404  -3.58543087 
H   -0.62876506  -1.00227177  -4.47208633 
H    1.09471396  -2.79258982  -4.31335761 
H    1.53580525   2.09961904  -2.00540320 
H   -0.21097819   1.14059043  -3.32119467 
H    3.84068230   0.02747381  -2.59170094 
H    3.41848641  -2.19860080  -3.62282406 
*
