! EnGrad PBEh-3c
%output 
xyzfile=True 
end 
%scf 
maxiter 250 
end
%output
Print[P_Hirshfeld] = 1
end
% maxcore
4000
*xyz 0 1
Pd   1.97310108   0.89383234  -0.56850579 
O   -0.33278520   2.43261830  -0.36981247 
O    0.06896895   0.17651437  -0.19552352 
O    3.69198690   1.82780578  -0.79224880 
O    3.31318235   1.09647331   1.20540160 
C   -0.75289740   1.26895817  -0.23174794 
C   -2.24040722   1.01095969  -0.12702786 
H   -2.68251352   1.87484840   0.38459823 
H   -2.46974009   0.10183881   0.40647451 
H   -2.67740797   0.97291695  -1.12447840 
C    4.12554745   1.61741374   0.38683386 
C    5.55974975   1.89141081   0.69522158 
H    5.76588294   1.77335499   1.73848546 
H    5.82010470   2.91016290   0.36942672 
H    6.19664877   1.21963667   0.10885265 
C    1.99334663   0.56733732  -2.97216770 
C    0.71891697   0.38989256  -3.45743815 
C    2.95507171  -0.44891410  -3.06379191 
C    0.39241428  -0.81359483  -4.07188937 
C    1.29301875  -1.85858404  -4.13190405 
C    2.54798358  -1.70119730  -3.56433989 
H   -0.57891543  -0.89301451  -4.52675786 
H    1.06487189  -2.73474799  -4.72303343 
H    0.81251337   3.13070070  -2.06497107 
H   -0.01277443   1.15176724  -3.40898023 
H    3.99993894  -0.32299189  -2.85766142 
H    3.25531755  -2.52058783  -3.58474355 
*
