! EnGrad PBEh-3c
%output 
xyzfile=True 
end 
%scf 
maxiter 250 
end
%output
Print[P_Hirshfeld] = 1
end
% maxcore
4000
*xyz 0 1
Pd   1.80415754   1.22040552  -0.91766841 
O   -0.31434535   2.39940005  -0.44956335 
O    0.12235189   0.31184024  -0.28645833 
O    3.69842401   1.80574391  -0.82694231 
O    3.37443387   0.96575558   1.22637387 
C   -0.72131404   1.28846952  -0.26512936 
C   -2.19116957   0.99239495  -0.11721563 
H   -2.68098665   1.83428567   0.35961882 
H   -2.48538216   0.07776396   0.39402101 
H   -2.62038321   0.92998007  -1.11601059 
C    4.09754547   1.50193056   0.38112109 
C    5.53690907   1.84644002   0.66696164 
H    5.79679637   1.69115064   1.71081895 
H    5.79375079   2.87201146   0.37935916 
H    6.16292476   1.18820109   0.06453920 
C    1.84424889   0.53675754  -2.73432257 
C    0.65010128   0.42455045  -3.45444093 
C    2.92181671  -0.31748613  -3.03380715 
C    0.37851120  -0.78364615  -4.10018057 
C    1.32412041  -1.80517231  -4.08728897 
C    2.60404218  -1.55038909  -3.61503481 
H   -0.63433310  -0.97409328  -4.45966125 
H    1.06697733  -2.78684166  -4.47879953 
H    1.10838807   2.65627385  -2.05839215 
H   -0.11419144   1.19317786  -3.40133013 
H    3.96139029  -0.12854787  -2.77827675 
H    3.31225402  -2.37029620  -3.53600736 
*
