! PBEh-3c NEB-CI

%pal nprocs 40 end

%neb
  product "reaction-1-prod-orca.xyz"
  nimages 20
  maxiter 1000
  restart_allxyzfile "reaction-1-pbeh3c-orca_pre-neb_MEP.allxyz"
end

*xyzfile 0 1 reaction-1-rct-orca.xyz
