! XTB2 NEB

%pal nprocs 10 end

%neb
  product "reaction-1-prod-orca.xyz"
  nimages 20
  maxiter 100
end

*xyzfile 0 1 reaction-1-rct-orca.xyz
