! EnGrad PBEh-3c
%output 
xyzfile=True 
end 
%scf 
maxiter 250 
end
%output
Print[P_Hirshfeld] = 1
end
% maxcore
4000
*xyz 1 1
Sc   1.52798608  -1.35780716  -1.63357687 
C    0.45549447  -0.69112853   0.23278136 
N   -0.44695150  -1.40757615   0.92710541 
C   -0.88480295  -0.71077525   2.01749513 
C   -0.19694295   0.45563998   2.03004669 
N    0.62132109   0.44327143   0.93456319 
C    1.49617777   1.54675799   0.57591130 
H    1.80854645   2.06144753   1.48153955 
H    0.98959799   2.25365733  -0.08048884 
H    2.38526040   1.16945155   0.06320383 
C   -0.97451714  -2.71585595   0.58553677 
H   -0.43948246  -3.12615161  -0.26516767 
H   -2.02992306  -2.64801896   0.32511248 
H   -0.85808259  -3.39518769   1.42885864 
H   -1.59504900  -1.10884501   2.72882934 
H   -0.26131872   1.29271547   2.70514611 
C   -0.34074529   1.59724241  -2.79867530 
H   -0.83327794   1.12793566  -3.61262134 
H   -0.44272293   2.66074453  -2.85094694 
H   -0.68108720   1.23781312  -1.88252582 
H    0.70171175   1.31729719  -2.91287379 
*
