! PBEh-3c OptTS Freq pal8

%geom
 maxiter 600
 calc_hess true
 recalc_hess 25
end 

*xyzfile 0 1 peak-au-cycl-dhsgs.xyz
