! EnGrad PBEh-3c
%output 
xyzfile=True 
end 
%scf 
maxiter 250 
end
%output
Print[P_Hirshfeld] = 1
end
% maxcore
4000
*xyz 0 1
Lu   0.06034755   0.34297615  -0.18743835 
C    0.38224846   0.92907613   2.41509890 
C    1.34641407  -0.07233485   2.16369734 
C    2.30715337   0.43849405   1.26716511 
C    1.93386705   1.77480466   0.96696586 
C    0.74795729   2.08138598   1.67472530 
H    2.50663030   2.46470357   0.37529693 
H    0.22464068   3.01696204   1.66578955 
H   -0.37391387   0.85835218   3.16545566 
H    1.34103861  -1.04981678   2.61441996 
H    3.22757424  -0.03299061   0.99903975 
C    1.01382163  -0.08650743  -2.57831840 
C   -0.28925747  -0.63982216  -2.59271242 
C    1.03107786  -1.94235090  -1.24765899 
C    1.83632057  -0.88564327  -1.73784601 
H    1.33576805   0.77306429  -3.13150347 
C   -0.26755366  -1.79306507  -1.77328677 
H   -1.11446100  -0.28052934  -3.17612156 
H    2.89006828  -0.79998979  -1.62135041 
H    1.35646752  -2.77503276  -0.65326404 
H   -1.04714998  -2.51714108  -1.64093581 
C   -2.53826093  -1.51827076   1.31364946 
H   -2.23421617  -1.48367490   2.35951523 
H   -2.20887542  -2.57193092   1.03747432 
H   -3.61658749  -1.30130992   1.15948619 
C   -1.74415112   1.74899226  -0.78199498 
H   -2.02616612  -0.72829444   0.72291978 
H   -1.34632139   2.58477121  -1.37017117 
H   -2.32080171   2.23855434   0.00734514 
H   -2.47822163   1.28835177  -1.45021452 
*
