! EnGrad PBEh-3c
%output 
xyzfile=True 
end 
%scf 
maxiter 250 
end
%output
Print[P_Hirshfeld] = 1
end
% maxcore
4000
*xyz 0 1
Pd   1.60690019   1.09042467  -0.07771470 
O   -0.12100623   2.06778002  -0.41784465 
O   -0.08183307  -0.03511528   0.02946796 
O    3.29141125   2.20912066  -0.20498844 
O    3.37793452   0.15521986   0.42117541 
C   -0.77348534   0.99038157  -0.20844641 
C   -2.25893018   0.94599851  -0.25744763 
H   -2.70831452   1.86296257   0.11579154 
H   -2.61054714   0.10504698   0.33255337 
H   -2.59565449   0.80283337  -1.28583938 
C    3.99071625   1.23003257   0.18997514 
C    5.46806008   1.35871669   0.32640453 
H    5.84145116   0.78963219   1.17078603 
H    5.73229254   2.40138900   0.44456061 
H    5.95667531   0.98033254  -0.57080070 
C    1.80309261   1.22101331  -3.41622231 
C    0.53162324   0.68038265  -3.52386843 
C    2.89622936   0.39188383  -3.27825312 
C    0.33884413  -0.70965651  -3.48997324 
C    1.46239013  -1.53665615  -3.32431386 
C    2.76230691  -1.00412330  -3.20118938 
H   -0.66723383  -1.16990509  -3.60761964 
H    1.35339098  -2.61768556  -3.29008512 
H    1.99018915   2.30708215  -3.44321469 
H   -0.32221104   1.32153776  -3.64610512 
H    3.88459441   0.84571206  -3.23314171 
H    3.65621638  -1.65669213  -3.05696484 
*
