! EnGrad PBEh-3c
%output 
xyzfile=True 
end 
%scf 
maxiter 250 
end
%output
Print[P_Hirshfeld] = 1
end
% maxcore
4000
*xyz 0 1
Pd   1.61407094   1.09353040  -0.08106804 
O   -0.11821230   2.06127805  -0.43522575 
O   -0.07424668  -0.03140066   0.04560758 
O    3.29037389   2.22349302  -0.19795580 
O    3.37943247   0.16753479   0.42613177 
C   -0.76502703   0.99107906  -0.21059988 
C   -2.25241055   0.94599445  -0.25600779 
H   -2.69001147   1.86657052   0.12485823 
H   -2.59929455   0.10440025   0.33562262 
H   -2.59557348   0.81137879  -1.28430571 
C    3.98974273   1.24519328   0.19757662 
C    5.46641044   1.37494964   0.33809590 
H    5.83045702   0.81886512   1.19921927 
H    5.72659718   2.42330218   0.44136528 
H    5.96407003   0.97898666  -0.55052116 
C    1.80582670   1.22323458  -3.40936179 
C    0.52806286   0.67039149  -3.52446773 
C    2.89435711   0.37354605  -3.26893275 
C    0.33754754  -0.71470937  -3.50717955 
C    1.46116153  -1.55392882  -3.35005375 
C    2.75376412  -1.01574937  -3.21655705 
H   -0.67007847  -1.17184053  -3.63269497 
H    1.33869548  -2.63468565  -3.33536636 
H    2.00220901   2.29777478  -3.42813303 
H   -0.32355696   1.32918287  -3.63384301 
H    3.86821734   0.83308754  -3.20193696 
H    3.64398939  -1.68099084  -3.07859543 
*
