! PBEh-3c OPT pal4

%geom
 maxiter 600
end 

*xyzfile 0 1 reaction-7-pbeh3c-orca_irc_IRC_F.xyz
