! PBEh-3c OPT pal4

%geom
 maxiter 600
end 

*xyzfile 0 1 reaction-0-rct-xtb.xyz
