! EnGrad PBEh-3c
%output 
xyzfile=True 
end 
%scf 
maxiter 250 
end
%output
Print[P_Hirshfeld] = 1
end
% maxcore
4000
*xyz -1 1
Pt  -1.00114180  -0.89819682   0.53387324 
Cl  -0.25336208  -0.54653159   2.69356146 
Cl  -2.66607398  -2.22864388   1.16144059 
Cl  -1.57375330  -1.08536789  -1.69195270 
C    1.08687206   0.96430982  -0.54334422 
H    1.47025976   1.80864141  -0.00491472 
H    1.14068201   0.07824228   0.13176630 
H    1.68365195   0.71555952  -1.39548226 
H    0.10328758   1.19166756  -0.88435612 
*
