! PBEh-3c OPT pal6

%geom
 maxiter 600
end 

*xyzfile 0 1 au-cyclise-rct.xyz
