! EnGrad PBEh-3c
%output 
xyzfile=True 
end 
%scf 
maxiter 250 
end
%output
Print[P_Hirshfeld] = 1
end
% maxcore
4000
*xyz 0 1
Pd   2.06999703   1.09973994  -0.83893980 
O   -0.47782507   2.53584008  -0.89524444 
O    0.17173362   0.45363003  -0.44789721 
O    3.88278264   1.80098532  -0.85312136 
O    3.31909844   1.08573826   1.13263423 
C   -0.78807933   1.31759738  -0.41189306 
C   -2.16471780   1.08653474  -0.13907115 
H   -2.62406068   1.92181462   0.37459493 
H   -2.29457636   0.15915800   0.39736819 
H   -2.59814879   0.99235593  -1.12787398 
C    4.16845464   1.56854128   0.37635747 
C    5.58030235   1.88168808   0.72188770 
H    5.79986943   1.73121458   1.77355131 
H    5.81277775   2.89983049   0.42046396 
H    6.17744862   1.20318462   0.11541644 
C    1.87888685   0.44299119  -2.70604476 
C    0.65638871   0.33743618  -3.37375063 
C    2.90812790  -0.44660612  -3.00857566 
C    0.37986520  -0.79799553  -4.12517449 
C    1.31122949  -1.82562135  -4.18214158 
C    2.58330328  -1.63728916  -3.65706222 
H   -0.60657620  -0.91403623  -4.55784438 
H    1.00555408  -2.79123849  -4.54353717 
H    0.44535992   2.40192993  -1.26295792 
H   -0.06605288   1.15260663  -3.32629293 
H    3.93344474  -0.19039568  -2.73541861 
H    3.31530857  -2.43648073  -3.66288077 
*
