! EnGrad PBEh-3c
%output 
xyzfile=True 
end 
%scf 
maxiter 250 
end
%output
Print[P_Hirshfeld] = 1
end
% maxcore
4000
*xyz 0 1
Pd   2.02009493   1.13468775  -0.84645914 
O   -0.39359520   2.47913409  -0.91179917 
O    0.10810899   0.39661704  -0.40935100 
O    3.86619535   1.85738167  -0.89197883 
O    3.29687395   0.99565522   1.04625640 
C   -0.70686784   1.32400477  -0.49848248 
C   -2.15201133   1.05308607  -0.16059009 
H   -2.63800633   1.89418503   0.34941438 
H   -2.32129276   0.11405496   0.41378077 
H   -2.63856718   0.94481760  -1.14116052 
C    4.15571235   1.51863598   0.31355674 
C    5.57777091   1.79268899   0.69418638 
H    5.80805135   1.61210261   1.73946891 
H    5.80399821   2.83174512   0.44144811 
H    6.21135421   1.16654629   0.05819304 
C    1.82723111   0.58856586  -2.73251417 
C    0.61533565   0.39057325  -3.37321605 
C    2.87371048  -0.28838435  -3.01838017 
C    0.35634499  -0.80161831  -4.04112296 
C    1.31788071  -1.80881035  -4.05442664 
C    2.60747448  -1.51655852  -3.61449625 
H   -0.62213811  -0.98380148  -4.48334225 
H    1.05322473  -2.81843879  -4.36267828 
H    0.64832205   2.36004079  -1.37725522 
H   -0.15980077   1.13670823  -3.32726560 
H    3.88395924  -0.05219815  -2.71100924 
H    3.37789895  -2.28201497  -3.63964386 
*
