! EnGrad PBEh-3c
%output 
xyzfile=True 
end 
%scf 
maxiter 250 
end
%output
Print[P_Hirshfeld] = 1
end
% maxcore
4000
*xyz 0 1
Pd   2.03773714   0.95314903  -0.84308587 
O   -0.25727535   2.59055953  -0.67640046 
O    0.06143195   0.33978103  -0.26069173 
O    3.80260633   1.70165896  -0.86383470 
O    3.31653566   1.29255735   1.24618073 
C   -0.67775464   1.30969284  -0.30108290 
C   -2.18466693   1.06913592  -0.09190695 
H   -2.67865208   1.87589808   0.43523131 
H   -2.42766113   0.11507109   0.41674828 
H   -2.67193458   1.00681522  -1.08255852 
C    4.11535533   1.68187574   0.39262952 
C    5.54763681   1.99806517   0.71143330 
H    5.74590450   1.96139029   1.78913740 
H    5.79968455   2.97433021   0.32581150 
H    6.21560661   1.28847751   0.20878689 
C    1.93496739   0.31954324  -2.64717839 
C    0.77180094   0.33030236  -3.41471907 
C    2.89916250  -0.64880030  -2.95574120 
C    0.44351071  -0.76418584  -4.21601119 
C    1.30058361  -1.84824350  -4.30882865 
C    2.55113731  -1.76330464  -3.71222481 
H   -0.53572309  -0.80390626  -4.69081089 
H    1.05335909  -2.69132486  -4.94587069 
H    0.46063694   2.83637984  -1.41438904 
H    0.03199709   1.11860300  -3.32148278 
H    3.92066852  -0.60429748  -2.57876368 
H    3.22266395  -2.62283751  -3.74598576 
*
