! EnGrad PBEh-3c
%output 
xyzfile=True 
end 
%scf 
maxiter 250 
end
%output
Print[P_Hirshfeld] = 1
end
% maxcore
4000
*xyz 0 1
Pd   2.03793758   1.01099172  -0.88413614 
O   -0.45225303   2.55010384  -0.75226695 
O    0.12197049   0.43253250  -0.33734025 
O    3.86381156   1.77554200  -0.85743285 
O    3.33238120   1.19073424   1.23750197 
C   -0.67586233   1.32879878  -0.44337780 
C   -2.11922501   1.11500090  -0.12243701 
H   -2.66966912   1.89424800   0.41060045 
H   -2.36069557   0.17131162   0.38631608 
H   -2.61071247   1.00147583  -1.08096861 
C    4.14427506   1.59280490   0.39120459 
C    5.55702247   1.94772474   0.72586694 
H    5.77587799   1.84935250   1.78131506 
H    5.81455964   2.95299184   0.37170520 
H    6.17249635   1.24944184   0.16727705 
C    1.89649977   0.32534543  -2.67740409 
C    0.71158147   0.33570386  -3.39482951 
C    2.92143209  -0.56850494  -2.97451030 
C    0.41837388  -0.76549480  -4.18234167 
C    1.29971547  -1.83773589  -4.24709744 
C    2.56972171  -1.70033461  -3.69040486 
H   -0.56671714  -0.85732773  -4.61335648 
H    1.01286524  -2.75596325  -4.75999285 
H    0.39933974   2.55238184  -1.29722848 
H   -0.01058216   1.14464855  -3.33041106 
H    3.95698780  -0.37978002  -2.68278889 
H    3.24948472  -2.53394500  -3.68786870 
*
