! EnGrad PBEh-3c
%output 
xyzfile=True 
end 
%scf 
maxiter 250 
end
%output
Print[P_Hirshfeld] = 1
end
% maxcore
4000
*xyz 0 1
Pd   1.62083768   1.09912216  -0.20296497 
O   -0.14542933   2.14572564  -0.37237550 
O   -0.05777403   0.01710210  -0.09090727 
O    3.32148325   2.12602476  -0.34820554 
O    3.45068185   0.21084110   0.62510403 
C   -0.79002752   1.04544994  -0.20800671 
C   -2.27754801   0.95427136  -0.22214050 
H   -2.74386723   1.85603209   0.16960715 
H   -2.61598145   0.08642476   0.34663529 
H   -2.62329150   0.82597135  -1.25408729 
C    4.02768168   1.26022981   0.26628833 
C    5.51149621   1.46210820   0.40836978 
H    5.88201173   0.98044920   1.31165365 
H    5.76064325   2.51708379   0.42061494 
H    6.03573306   1.01251454  -0.45010490 
C    1.80840640   1.28449701  -3.33962316 
C    0.59116521   0.64702350  -3.51785844 
C    2.89010363   0.35086333  -3.25249902 
C    0.39160637  -0.74131814  -3.59234947 
C    1.43876158  -1.62458806  -3.43077161 
C    2.70331841  -1.06520455  -3.25024198 
H   -0.61113082  -1.12649918  -3.76186265 
H    1.28054355  -2.70023072  -3.54990512 
H    1.73663599   2.34131748  -3.26090675 
H   -0.27473543   1.26044295  -3.64718921 
H    3.96248431   0.58992055  -3.26747643 
H    3.52192676  -1.80246258  -3.07964683 
*
