! PBEh-3c OPT pal4

%geom
 maxiter 600
end 

*xyzfile -1 1 reaction-2-pbeh3c-orca_irc_IRC_F.xyz
