! EnGrad PBEh-3c
%output 
xyzfile=True 
end 
%scf 
maxiter 250 
end
%output
Print[P_Hirshfeld] = 1
end
% maxcore
4000
*xyz 0 1
Pd   0.43683547   0.20088384  -0.18341240 
O    1.93438663   1.34827194   0.64550901 
C    1.67395137   2.56202524   0.33169021 
O    0.68576019   2.91355437  -0.18772587 
C    2.78033681   3.63948143   0.63401772 
H    2.33402671   4.54628089   1.04616898 
H    3.24194914   3.93838604  -0.31431463 
H    3.56936120   3.29487202   1.30313994 
N   -1.40370435  -0.80918860  -0.98684374 
C   -1.21949971  -2.01739261  -1.81380754 
H   -0.63544017  -1.80179802  -2.69992293 
H   -2.18840966  -2.38119232  -2.15609174 
H   -0.69331111  -2.76776667  -1.22372873 
C   -2.02133349   0.21066960  -1.85327734 
H   -2.12386530   1.16338913  -1.32508103 
H   -3.00616939  -0.13118315  -2.17191881 
H   -1.40719613   0.36692531  -2.73389519 
C   -1.65585774  -1.10229431   1.49063943 
C   -1.60363829  -2.19172988   2.35173501 
C   -1.29906200  -2.04125312   3.69342708 
C   -1.02487592  -0.78042771   4.18723062 
C   -1.13890126   0.32906934   3.37215781 
C   -1.39246199   0.14377111   2.03639871 
H   -0.78276283  -0.64504953   5.23581072 
H   -1.08149645   1.30424320   3.82649810 
H   -2.01525834  -3.15628198   2.05361364 
H   -1.45214430  -2.86497345   4.38199708 
H   -1.70574403   3.59307367   1.19045647 
C   -2.32044536  -1.15675183   0.14294241 
H   -3.16612327  -0.46918514   0.18732906 
H   -2.79338600  -2.13733957   0.02227981 
O    1.83045053   0.12668168  -1.67685218 
C    2.22575609  -0.62139529  -2.64582292 
O    1.60013664  -1.42983957  -3.27298083 
C    3.68001719  -0.34672442  -3.11117542 
H    4.14010487  -1.25400358  -3.51618517 
H    4.37845471   0.04411177  -2.34821945 
H    3.62573156   0.37561636  -3.91418555 
*
