! EnGrad PBEh-3c
%output 
xyzfile=True 
end 
%scf 
maxiter 250 
end
%output
Print[P_Hirshfeld] = 1
end
% maxcore
4000
%pal nprocs 6
end
*xyz 0 1
C   -1.89187855   1.78678614   0.25829050 
C   -3.09956102   1.15630309   0.50938760 
H   -4.12784233  -0.71100282   0.71243180 
H    3.23249695   0.64666907  -1.65250628 
C   -0.75167901   1.02448476   0.05694794 
C   -3.17114451  -0.22987144   0.55464801 
C   -0.82206574  -0.35700765   0.17799064 
C    0.57488511   1.49337401  -0.32293767 
C   -2.02530597  -1.00741943   0.39761548 
H   -1.82087738   2.86379918   0.19866935 
H   -3.99309805   1.75054994   0.65049592 
N    0.49062896  -0.96908467  -0.01374158 
H   -2.11847865  -2.08613318   0.43639072 
C    1.42312584   0.49448774  -0.45904504 
C    2.90136701   0.39439657  -0.64030997 
H    3.44043765   1.07871949   0.02525146 
H    3.25202877  -0.60685413  -0.41842133 
C    0.37195128  -2.16251915  -0.90704065 
H   -0.15982817  -2.97229230  -0.39098669 
C    1.07732567  -1.40737890   1.27838958 
H   -0.19188297  -1.91934661  -1.80253251 
H    1.35113724  -2.54638671  -1.17919220 
Au   1.03945680   3.38522835  -0.82826818 
H    0.44611406  -2.13513084   1.79208739 
H    2.04409351  -1.86809116   1.08346320 
H    1.21518802  -0.53894108   1.91336710 
Cl   1.35591852   5.54412504  -1.53033229 
*
